# A_tP4_129_ac params=4.897,0.69185215438,0.375 SG#=129 [ANRL doi: 10.1016/j.commatsci.2017.01.017 (part 1), arXiv:1806.07864 (part 2)]
# AFLOW::AIMS BEGIN 
lattice_vector    4.89700000000000   0.00000000000000   0.00000000000000
lattice_vector    0.00000000000000   4.89700000000000   0.00000000000000
lattice_vector    0.00000000000000   0.00000000000000   3.38799999999886
atom_frac    0.75000000000000    0.25000000000000    0.00000000000000  Np 
atom_frac    0.25000000000000    0.75000000000000    0.00000000000000  Np 
atom_frac    0.25000000000000    0.25000000000000    0.37500000000000  Np 
atom_frac    0.75000000000000    0.75000000000000   -0.37500000000000  Np 
# AFLOW::AIMS END 
