#=======================================================
#FHI-aims file: /home/leitherer/nomad/nomad-lab-base/apt/PROTOTYPES/Quaternaries/Cu2KVS4/Cu2KVS4_Cu8K4S16V4.txt
#Created using the Atomic Simulation Environment (ASE)
#=======================================================
lattice_vector 7.2592987558559656 0.0000392579906055 -0.0000000000000000 
lattice_vector 0.0000953274634130 17.6285425333660726 -0.0000000000000000 
lattice_vector 0.0000000000000003 0.0000000000000003 5.3288420476858693 
atom 5.4445827841251564 15.6766744472584421 1.3321882925501278 V
atom 1.8148112991942311 1.9519073440982353 1.3321882925501278 V
atom 5.4445351222573617 6.8624003445595667 3.9966405084989360 V
atom 1.8148589610620192 10.7661814467971055 3.9966405084989360 V
atom 5.4445756185962431 17.5020125138010663 0.0624053505167700 S
atom 1.8148184647231425 0.1265692775556150 0.0624053505167701 S
atom 5.4445279550817629 8.6877394613107590 2.7268613607634760 S
atom 1.8148661282376362 8.9408423300459141 2.7268613607634760 S
atom 3.6571941474863250 15.6857689120984478 2.5925676939464939 S
atom 3.6021999358330588 1.9428128792582466 2.5925676939464939 S
atom 7.2319747521771109 15.6857959077624951 2.5925661435846341 S
atom 0.0274193311422719 1.9427858835941800 2.5925661435846341 S
atom 3.6571472497309396 6.8714938116491542 5.2570201517382182 S
atom 3.6022468335884454 10.7570879797075296 5.2570201517382182 S
atom 7.2319263247115817 6.8715208087348305 5.2570186032576975 S
atom 0.0274677586078040 10.7570609826218622 5.2570186032576975 S
atom 5.4445983711586017 13.9313833368599393 0.0726334194514639 S
atom 1.8147957121607829 3.6971984544967529 0.0726334194514639 S
atom 5.4445507111534157 5.1171093614883603 2.7370800410979679 S
atom 1.8148433721659680 12.5114724298683271 2.7370800410979679 S
atom 5.4444729112750396 3.2083808271533734 0.0486987699100039 K
atom 1.8149211720443430 14.4202009642033069 0.0486987699100039 K
atom 5.4445205741633504 12.0226569719849703 2.7131319046126730 K
atom 1.8148735091560249 5.6059248193717188 2.7131319046126725 K
atom 3.6296493779279873 0.0000196289953027 1.4242518093639416 Cu
atom 0.0000000000000001 -0.0000000000000001 1.4242654845538489 Cu
atom 3.6296970416596919 8.8142908956783383 4.0887111707382351 Cu
atom 0.0000476637317067 8.8142712666830416 4.0887248412377799 Cu
atom 5.4445895874266741 15.7085947640708774 3.9938745801056834 Cu
atom 1.8148044958927134 1.9199870272857933 3.9938745801056834 Cu
atom 5.4445419244166438 6.8943235600141541 1.3294862353895653 Cu
atom 1.8148521589027327 10.7342582313425225 1.3294862353895653 Cu
