#=======================================================
#FHI-aims file: /home/leitherer/nomad/nomad-lab-base/apt/PROTOTYPES/2D_materials/CdI2/CdI2_CdI2.txt
#Created using the Atomic Simulation Environment (ASE)
#=======================================================
lattice_vector 4.3243751181690602 -0.0000000000000000 0.0000000000000000 
lattice_vector -2.1621875590845305 3.7450187078277395 0.0000000000000000 
lattice_vector 0.0000000000000000 0.0000000000000000 18.4410328435558206 
atom -0.0000000000000000 0.0000000000000000 9.2205164217779156 Cd
atom 2.1621875590845296 1.2483395692759132 10.9410328435558206 I
atom -0.0000000000000002 2.4966791385518263 7.5000000000000000 I
