#=======================================================
#FHI-aims file: /home/leitherer/nomad/nomad-lab-base/apt/PROTOTYPES/Ternaries/3_halides_orthorhombic/3_halides_orthorhombic_Cl12Cs4Sn4.txt
#Created using the Atomic Simulation Environment (ASE)
#=======================================================
lattice_vector 7.6170700000000000 0.0000000000000000 0.0000000000000000 
lattice_vector 0.0000000000000000 7.7938700000000001 0.0000000000000000 
lattice_vector 0.0000000000000000 0.0000000000000000 11.0126000000000008 
atom 0.3361000000000000 3.7452999999999999 8.3979999999999997 Cl
atom 7.2999000000000001 3.7839999999999998 2.8959000000000001 Cl
atom 4.1669999999999998 7.7015000000000002 2.8908999999999998 Cl
atom 3.4655000000000000 7.6219000000000001 8.3926999999999996 Cl
atom 6.0614999999999997 6.0660999999999996 10.8930000000000007 Cl
atom 6.0537000000000001 6.0244000000000000 5.8990000000000000 Cl
atom 1.5588000000000000 1.4833000000000001 0.3873000000000000 Cl
atom 1.6000000000000001 1.4841000000000000 5.3795000000000002 Cl
atom 2.2549999999999999 5.3742999999999999 0.4083000000000000 Cl
atom 2.2444000000000002 5.3817000000000004 5.3554000000000004 Cl
atom 5.3673999999999999 2.1671999999999998 10.8703000000000003 Cl
atom 5.4024000000000001 2.1267000000000000 5.9203999999999999 Cl
atom 7.5294999999999996 0.2220000000000000 8.3858999999999995 Cs
atom 0.1056000000000000 7.3052000000000001 2.8969999999999998 Cs
atom 3.7656999999999998 3.4304000000000001 2.8896000000000002 Cs
atom 3.8645999999999998 4.0904999999999996 8.3817000000000004 Cs
atom 3.8098999999999998 7.6599000000000004 0.1368000000000000 Sn
atom 3.8159999999999998 7.6501000000000001 5.6407999999999996 Sn
atom 0.0030000000000000 3.7578999999999998 0.1381000000000000 Sn
atom 0.0107000000000000 3.7515000000000001 5.6445999999999996 Sn
