# AB3_cP4_221_a_c params=3.7402 SG#=221 [ANRL doi: 10.1016/j.commatsci.2017.01.017 (part 1), arXiv:1806.07864 (part 2)]
# AFLOW::AIMS BEGIN 
lattice_vector    3.74020000000000   0.00000000000000   0.00000000000000
lattice_vector    0.00000000000000   3.74020000000000   0.00000000000000
lattice_vector    0.00000000000000   0.00000000000000   3.74020000000000
atom_frac    0.00000000000000    0.00000000000000    0.00000000000000  Au 
atom_frac    0.00000000000000    0.50000000000000    0.50000000000000  Cu 
atom_frac    0.50000000000000    0.00000000000000    0.50000000000000  Cu 
atom_frac    0.50000000000000    0.50000000000000    0.00000000000000  Cu 
# AFLOW::AIMS END 
