# BN/AB_hP4_194_c_d params=2.50399,2.66023426611 SG#=194 [ANRL doi: 10.1016/j.commatsci.2017.01.017 (part 1), doi: 10.1016/j.commatsci.2018.10.043 (part 2)]
# AFLOW::AIMS BEGIN 
lattice_vector    1.25199500000000  -2.16851895082220   0.00000000000000
lattice_vector    1.25199500000000   2.16851895082220   0.00000000000000
lattice_vector    0.00000000000000   0.00000000000000   6.66119999999678
atom_frac    0.33333333333333    0.66666666666667    0.25000000000000  B 
atom_frac    0.66666666666667    0.33333333333333    0.75000000000000  B 
atom_frac    0.33333333333333    0.66666666666667    0.75000000000000  N 
atom_frac    0.66666666666667    0.33333333333333    0.25000000000000  N 
# AFLOW::AIMS END 
