# CuTi/AB3_tP4_123_a_ce.AB params=4.158,0.864357864358 SG=123 [ANRL doi: 10.1016/j.commatsci.2017.01.017 (part 1), doi: 10.1016/j.commatsci.2018.10.043 (part 2)]
# AFLOW::AIMS BEGIN 
lattice_vector    4.15800000000000   0.00000000000000   0.00000000000000
lattice_vector    0.00000000000000   4.15800000000000   0.00000000000000
lattice_vector    0.00000000000000   0.00000000000000   3.59400000000056
atom_frac    0.00000000000000    0.00000000000000    0.00000000000000  Cu 
atom_frac    0.50000000000000    0.50000000000000    0.00000000000000  Ti 
atom_frac    0.00000000000000    0.50000000000000    0.50000000000000  Ti 
atom_frac    0.50000000000000    0.00000000000000    0.50000000000000  Ti 
# AFLOW::AIMS END 
