# CaF/AB2_cF12_225_a_c.AB params=5.4631 SG=225 [ANRL doi: 10.1016/j.commatsci.2017.01.017 (part 1), doi: 10.1016/j.commatsci.2018.10.043 (part 2)]
# AFLOW::AIMS BEGIN 
lattice_vector    0.00000000000000   2.73155000000000   2.73155000000000
lattice_vector    2.73155000000000   0.00000000000000   2.73155000000000
lattice_vector    2.73155000000000   2.73155000000000   0.00000000000000
atom_frac    0.00000000000000    0.00000000000000    0.00000000000000  Ca 
atom_frac    0.25000000000000    0.25000000000000    0.25000000000000  F 
atom_frac    0.75000000000000    0.75000000000000    0.75000000000000  F 
# AFLOW::AIMS END 
