# CSi/AB_hP8_186_ab_ab.AB params=3.08051,3.27374363336,0.18784,0,0.43671,0.24982 SG=186 [ANRL doi: 10.1016/j.commatsci.2017.01.017 (part 1), doi: 10.1016/j.commatsci.2018.10.043 (part 2)]
# AFLOW::AIMS BEGIN 
lattice_vector    1.54025500000000  -2.66779991661200   0.00000000000000
lattice_vector    1.54025500000000   2.66779991661200   0.00000000000000
lattice_vector    0.00000000000000   0.00000000000000  10.08480000000181
atom_frac    0.00000000000000    0.00000000000000    0.18784000000000  C 
atom_frac    0.00000000000000    0.00000000000000    0.68784000000000  C 
atom_frac    0.33333333333333    0.66666666666667    0.43671000000000  C 
atom_frac    0.66666666666667    0.33333333333333    0.93671000000000  C 
atom_frac    0.00000000000000    0.00000000000000    0.00000000000000  Si 
atom_frac    0.00000000000000    0.00000000000000    0.50000000000000  Si 
atom_frac    0.33333333333333    0.66666666666667    0.24982000000000  Si 
atom_frac    0.66666666666667    0.33333333333333    0.74982000000000  Si 
# AFLOW::AIMS END 

