# NbO/AB_cP6_221_c_d.AB params=4.2101 SG=221 [ANRL doi: 10.1016/j.commatsci.2017.01.017 (part 1), doi: 10.1016/j.commatsci.2018.10.043 (part 2)]
# AFLOW::AIMS BEGIN 
lattice_vector    4.21010000000000   0.00000000000000   0.00000000000000
lattice_vector    0.00000000000000   4.21010000000000   0.00000000000000
lattice_vector    0.00000000000000   0.00000000000000   4.21010000000000
atom_frac    0.00000000000000    0.50000000000000    0.50000000000000  Nb 
atom_frac    0.50000000000000    0.00000000000000    0.50000000000000  Nb 
atom_frac    0.50000000000000    0.50000000000000    0.00000000000000  Nb 
atom_frac    0.50000000000000    0.00000000000000    0.00000000000000  O 
atom_frac    0.00000000000000    0.50000000000000    0.00000000000000  O 
atom_frac    0.00000000000000    0.00000000000000    0.50000000000000  O 
# AFLOW::AIMS END 

