# OTi/A2B_tP6_136_f_a.AB params=4.5922,0.644005052045,0.30496 SG=136 [ANRL doi: 10.1016/j.commatsci.2017.01.017 (part 1), doi: 10.1016/j.commatsci.2018.10.043 (part 2)]
# AFLOW::AIMS BEGIN 
lattice_vector    4.59220000000000   0.00000000000000   0.00000000000000
lattice_vector    0.00000000000000   4.59220000000000   0.00000000000000
lattice_vector    0.00000000000000   0.00000000000000   2.95740000000105
atom_frac    0.30496000000000    0.30496000000000    0.00000000000000  O 
atom_frac   -0.30496000000000   -0.30496000000000    0.00000000000000  O 
atom_frac    0.19504000000000    0.80496000000000    0.50000000000000  O 
atom_frac    0.80496000000000    0.19504000000000    0.50000000000000  O 
atom_frac    0.00000000000000    0.00000000000000    0.00000000000000  Ti 
atom_frac    0.50000000000000    0.50000000000000    0.50000000000000  Ti 
# AFLOW::AIMS END 

