# CW/AB_hP2_187_d_a params=2.9065,0.975950455875 SG=187 [ANRL doi: 10.1016/j.commatsci.2017.01.017 (part 1), doi: 10.1016/j.commatsci.2018.10.043 (part 2)]
# AFLOW::AIMS BEGIN 
lattice_vector    1.45325000000000  -2.51710283609947   0.00000000000000
lattice_vector    1.45325000000000   2.51710283609947   0.00000000000000
lattice_vector    0.00000000000000   0.00000000000000   2.83660000000069
atom_frac    0.33333333333333    0.66666666666667    0.50000000000000  C 
atom_frac    0.00000000000000    0.00000000000000    0.00000000000000  W 
# AFLOW::AIMS END 

