# AB_hP4_186_b_b params=3.8227,1.63776911607,0.3748,0 SG#=186 [ANRL doi: 10.1016/j.commatsci.2017.01.017 (part 1), arXiv:1806.07864 (part 2)]
# AFLOW::AIMS BEGIN 
lattice_vector    1.91135000000000  -3.31055531104677   0.00000000000000
lattice_vector    1.91135000000000   3.31055531104677   0.00000000000000
lattice_vector    0.00000000000000   0.00000000000000   6.26070000000079
atom_frac    0.33333333333333    0.66666666666667    0.37480000000000  S 
atom_frac    0.66666666666667    0.33333333333333    0.87480000000000  S 
atom_frac    0.33333333333333    0.66666666666667    0.00000000000000  Zn 
atom_frac    0.66666666666667    0.33333333333333    0.50000000000000  Zn 
# AFLOW::AIMS END 
