#=======================================================
#FHI-aims file: /home/leitherer/nomad/nomad-lab-base/apt/PROTOTYPES/2D_materials/Ti3C2O2/Ti3C2O2_C2O2Ti3.txt
#Created using the Atomic Simulation Environment (ASE)
#=======================================================
lattice_vector 3.0379900028010014 0.0000000000000000 0.0000000000000000 
lattice_vector -1.5189950014005011 2.6309765188688217 0.0000000000000000 
lattice_vector 0.0000000000000000 0.0000000000000000 21.9924108443664927 
atom -0.0000000000000000 -0.0000000000000000 10.9962054221827383 Ti
atom 1.5189950014004994 0.8769921729562725 13.5817677938465025 Ti
atom 1.5189950014004994 0.8769921729562725 8.4106430505198144 Ti
atom 0.0000000000000006 1.7539843459125450 12.2871028640703042 C
atom 0.0000000000000006 1.7539843459125450 9.7053079802959328 C
atom 0.0000000000000000 -0.0000000000000000 14.5021739547694644 O
atom 0.0000000000000000 -0.0000000000000000 7.4902368895976288 O
