# A_hR2_166_c params=2.456,4.08957654723,0.16667 SG#=166 [ANRL doi: 10.1016/j.commatsci.2017.01.017 (part 1), arXiv:1806.07864 (part 2)]
# AFLOW::AIMS BEGIN 
lattice_vector    1.22800000000000  -0.70898613056486   3.34799999999896
lattice_vector    0.00000000000000   1.41797226112972   3.34799999999896
lattice_vector   -1.22800000000000  -0.70898613056486   3.34799999999896
atom_frac    0.16667000000000    0.16667000000000    0.16667000000000  C 
atom_frac   -0.16667000000000   -0.16667000000000   -0.16667000000000  C 
# AFLOW::AIMS END 
