# A_oC8_64_f params=7.11906,0.654575182679,1.37596817557,0.15485,0.1175 SG#=64 [ANRL doi: 10.1016/j.commatsci.2017.01.017 (part 1), arXiv:1806.07864 (part 2)]
# AFLOW::AIMS BEGIN 
lattice_vector    3.55953000000000  -2.32998000000138   0.00000000000000
lattice_vector    3.55953000000000   2.32998000000138   0.00000000000000
lattice_vector    0.00000000000000   0.00000000000000   9.79559999997336
atom_frac   -0.15485000000000    0.15485000000000    0.11750000000000  I 
atom_frac    0.65485000000000    0.34515000000000    0.61750000000000  I 
atom_frac    0.34515000000000    0.65485000000000    0.38250000000000  I 
atom_frac    0.15485000000000   -0.15485000000000   -0.11750000000000  I 
# AFLOW::AIMS END 
