#=======================================================
#FHI-aims file: /home/leitherer/nomad/nomad-lab-base/apt/PROTOTYPES/2D_materials/CH2Si/CH2Si_CH2Si.txt
#Created using the Atomic Simulation Environment (ASE)
#=======================================================
lattice_vector 3.1291117713532337 -0.0000000000000000 0.0000000000000000 
lattice_vector -1.5645558856766171 2.7098902852730844 0.0000000000000000 
lattice_vector 0.0000000000000010 0.0000000000000018 16.7160000000000011 
atom 1.5645558856766173 2.7098902852730764 8.1686374639976389 Si
atom -0.0000000037812415 1.8065935235153907 8.7438052698201751 C
atom 0.0000000000000006 0.0000000000000007 6.6688843387778176 H
atom -0.0000000037812414 1.8065935235153909 9.8512709064743884 H
