#=======================================================
#FHI-aims file: /home/leitherer/nomad/nomad-lab-base/apt/PROTOTYPES/2D_materials/Ti3C2H2O2/Ti3C2H2O2_C2H2O2Ti3.txt
#Created using the Atomic Simulation Environment (ASE)
#=======================================================
lattice_vector 3.0866372045663923 -0.0000000000000000 0.0000000000000000 
lattice_vector -1.5433186022831966 2.6731062314206784 0.0000000000000000 
lattice_vector 0.0000000000000000 0.0000000000000000 24.1957376366982295 
atom -0.0000000000000000 -0.0000000000000000 12.0978544606279161 Ti
atom 1.5433186022831940 0.8910354104735593 14.4573054584369132 Ti
atom 1.5433186022831940 0.8910354104735593 9.7384023354989750 Ti
atom 0.0000000000000025 1.7820708209471186 13.3930832612806618 C
atom 0.0000000000000025 1.7820708209471186 10.8026272640292760 C
atom 0.0000000000000000 -0.0000000000000000 15.7352804100665704 O
atom 0.0000000000000000 -0.0000000000000000 8.4604269550313127 O
atom 0.0000000000000000 -0.0000000000000000 16.7080898991132152 H
atom 0.0000000000000000 -0.0000000000000000 7.4876180637129348 H
