#=======================================================
#FHI-aims file: /home/leitherer/nomad/nomad-lab-base/apt/PROTOTYPES/2D_materials/Ti4C3O2/Ti4C3O2_C3O2Ti4.txt
#Created using the Atomic Simulation Environment (ASE)
#=======================================================
lattice_vector 3.0432414625685724 -0.0000000000000000 0.0000000000000000 
lattice_vector -1.5216207312842867 2.6355244164344906 0.0000000000000000 
lattice_vector -0.0000000000000000 0.0000000000000000 24.4287149319761241 
atom 0.0000000000000024 1.7570162776229958 10.9499429442635634 Ti
atom 1.5216207312842871 0.8785081388114979 13.4784733272058421 Ti
atom 0.0000000000000000 -0.0000000000000000 8.3811339463112180 Ti
atom -0.0000000000000000 -0.0000000000000000 16.0474564913102036 Ti
atom 0.0000000000000000 -0.0000000000000000 12.2143097924543458 C
atom 1.5216207312842871 0.8785081388114979 9.6963478452664660 C
atom 0.0000000000000024 1.7570162776229958 14.7320685475220365 C
atom 1.5216207312842871 0.8785081388114979 16.9576621164845172 O
atom 0.0000000000000024 1.7570162776229958 7.4712034795486950 O
