# A_cF4_225_a params=3.61491 SG#=225 [ANRL doi: 10.1016/j.commatsci.2017.01.017 (part 1), arXiv:1806.07864 (part 2)]
# AFLOW::AIMS BEGIN 
lattice_vector    0.00000000000000   1.80745500000000   1.80745500000000
lattice_vector    1.80745500000000   0.00000000000000   1.80745500000000
lattice_vector    1.80745500000000   1.80745500000000   0.00000000000000
atom_frac    0.00000000000000    0.00000000000000    0.00000000000000  Cu 
# AFLOW::AIMS END 
