# AB_oC8_63_c_c params=2.9782,2.64253575985,0.985360284736,0.436,0.14525 SG#=63 [ANRL doi: 10.1016/j.commatsci.2017.01.017 (part 1), arXiv:1806.07864 (part 2)]
# AFLOW::AIMS BEGIN 
lattice_vector    1.48910000000000  -3.93499999999264   0.00000000000000
lattice_vector    1.48910000000000   3.93499999999264   0.00000000000000
lattice_vector    0.00000000000000   0.00000000000000   2.93460000000076
atom_frac   -0.43600000000000    0.43600000000000    0.25000000000000  B 
atom_frac    0.43600000000000   -0.43600000000000    0.75000000000000  B 
atom_frac   -0.14525000000000    0.14525000000000    0.25000000000000  Cr 
atom_frac    0.14525000000000   -0.14525000000000    0.75000000000000  Cr 
# AFLOW::AIMS END 
