#=======================================================
#FHI-aims file: /home/leitherer/nomad/nomad-lab-base/apt/PROTOTYPES/2D_materials/Ti4C3/Ti4C3_C3Ti4.txt
#Created using the Atomic Simulation Environment (ASE)
#=======================================================
lattice_vector 3.0974525643183557 -0.0000000000000000 0.0000000000000000 
lattice_vector -1.5487262821591783 2.6824726077169467 0.0000000000000000 
lattice_vector -0.0000000000000000 -0.0000000000000000 22.1771870699075322 
atom 0.0000000000000017 1.7883150718112977 9.9015397693029534 Ti
initial_moment         0.029330
atom 1.5487262821591758 0.8941575359056488 12.2757183887649166 Ti
initial_moment         0.029312
atom -0.0000000000000000 0.0000000000000000 7.5169880971968457 Ti
initial_moment         0.506633
atom 0.0000000000000000 -0.0000000000000000 14.6604001397003199 Ti
initial_moment         0.506636
atom 0.0000000000000000 -0.0000000000000000 11.0886246789516285 C
initial_moment        -0.001764
atom 1.5487262821591758 0.8941575359056488 8.5213965985800009 C
initial_moment        -0.024847
atom 0.0000000000000017 1.7883150718112977 13.6559017441647210 C
initial_moment        -0.024841
