# AB_tP2_123_a_d params=2.8,1.31071428571 SG#=123 [ANRL doi: 10.1016/j.commatsci.2017.01.017 (part 1), arXiv:1806.07864 (part 2)]
# AFLOW::AIMS BEGIN 
lattice_vector    2.80000000000000   0.00000000000000   0.00000000000000
lattice_vector    0.00000000000000   2.80000000000000   0.00000000000000
lattice_vector    0.00000000000000   0.00000000000000   3.66999999998800
atom_frac    0.00000000000000    0.00000000000000    0.00000000000000  Au 
atom_frac    0.50000000000000    0.50000000000000    0.50000000000000  Cu 
# AFLOW::AIMS END 
