# A_hR2_166_c params=3.289,3.42991790818,0.0543 SG#=166 [ANRL doi: 10.1016/j.commatsci.2017.01.017 (part 1), arXiv:1806.07864 (part 2)]
# AFLOW::AIMS BEGIN 
lattice_vector    1.64450000000000  -0.94945251768234   3.76033333333467
lattice_vector    0.00000000000000   1.89890503536468   3.76033333333467
lattice_vector   -1.64450000000000  -0.94945251768234   3.76033333333467
atom_frac    0.05430000000000    0.05430000000000    0.05430000000000  O 
atom_frac   -0.05430000000000   -0.05430000000000   -0.05430000000000  O 
# AFLOW::AIMS END 
