#=======================================================
#FHI-aims file: /home/leitherer/nomad/nomad-lab-base/apt/PROTOTYPES/2D_materials/CrWS4/CrWS4_Cr2S8W2.txt
#Created using the Atomic Simulation Environment (ASE)
#=======================================================
lattice_vector 6.2640722849655743 0.0000000000000000 0.0000000000000000 
lattice_vector 0.0000000000000000 5.4101608204891649 0.0000000000000000 
lattice_vector 0.0000000000000000 0.0000000000000000 18.0958486848118341 
atom 0.0053440756182692 0.0062165510405442 9.0475788897742877 Cr
atom 3.1373117332021017 0.0062002035871874 9.0480711792760538 Cr
atom 1.5711902331774223 2.7091230740105350 9.0478319901348598 W
atom 4.7031457609959464 2.7091192930439454 9.0478465012570783 W
atom 0.0051703191141021 1.7525081127841899 7.5000000000000000 S
atom 1.5710260622983738 4.5681062289679737 10.5440083605218415 S
atom 0.0051411156549311 1.7521900906736194 10.5952760078022941 S
atom 1.5712195140906391 4.5679646839408381 7.5516014730808472 S
atom 3.1372047019438676 1.7522554408121911 7.5002947343832762 S
atom 4.7036830401632859 4.5680202751537946 10.5440715612315046 S
atom 3.1371943056499676 1.7524725010159494 10.5958486848118341 S
atom 4.7033999578126977 4.5680207764847287 7.5517860906232119 S
