# A_hP4_186_ab params=2.47,2.75303643725,0,0.07143 SG#=186 [ANRL doi: 10.1016/j.commatsci.2017.01.017 (part 1), arXiv:1806.07864 (part 2)]
# AFLOW::AIMS BEGIN 
lattice_vector    1.23500000000000  -2.13908274734756   0.00000000000000
lattice_vector    1.23500000000000   2.13908274734756   0.00000000000000
lattice_vector    0.00000000000000   0.00000000000000   6.80000000000750
atom_frac    0.00000000000000    0.00000000000000    0.00000000000000  C 
atom_frac    0.00000000000000    0.00000000000000    0.50000000000000  C 
atom_frac    0.33333333333333    0.66666666666667    0.07143000000000  C 
atom_frac    0.66666666666667    0.33333333333333    0.57143000000000  C 
# AFLOW::AIMS END 
