# AB_oP8_62_c_c params=5.2416,0.606723137973,1.12622100122,0.0056,0.1952,0.1879,0.5696 SG#=62 [ANRL doi: 10.1016/j.commatsci.2017.01.017 (part 1), arXiv:1806.07864 (part 2)]
# AFLOW::AIMS BEGIN 
lattice_vector    5.24160000000000   0.00000000000000   0.00000000000000
lattice_vector    0.00000000000000   3.18019999999928   0.00000000000000
lattice_vector    0.00000000000000   0.00000000000000   5.90319999999475
atom_frac    0.00560000000000    0.25000000000000    0.19520000000000  Mn 
atom_frac    0.49440000000000    0.75000000000000    0.69520000000000  Mn 
atom_frac   -0.00560000000000    0.75000000000000   -0.19520000000000  Mn 
atom_frac    0.50560000000000    0.25000000000000    0.30480000000000  Mn 
atom_frac    0.18790000000000    0.25000000000000    0.56960000000000  P 
atom_frac    0.31210000000000    0.75000000000000    1.06960000000000  P 
atom_frac   -0.18790000000000    0.75000000000000   -0.56960000000000  P 
atom_frac    0.68790000000000    0.25000000000000   -0.06960000000000  P 
# AFLOW::AIMS END 
