#=======================================================
#FHI-aims file: /home/leitherer/nomad/nomad-lab-base/apt/PROTOTYPES/2D_materials/GeSe/GeSe_GeSe.txt
#Created using the Atomic Simulation Environment (ASE)
#=======================================================
lattice_vector 3.6662159365180575 0.0000000000000000 0.0000000000000000 
lattice_vector -1.8331079682590288 3.1750361367839943 0.0000000000000000 
lattice_vector -0.0000000000000000 0.0000000000000000 16.4452696353864809 
atom 1.8331079682590283 1.0583453789279982 8.9462382176518656 Ge
atom -0.0000000000000002 2.1166907578559964 7.4988784839382561 Se
