#=======================================================
#FHI-aims file: /home/leitherer/nomad/nomad-lab-base/apt/PROTOTYPES/2D_materials/Ti2CO2/Ti2CO2_CO2Ti2.txt
#Created using the Atomic Simulation Environment (ASE)
#=======================================================
lattice_vector 3.0321354409312224 -0.0000000000000000 0.0000000000000000 
lattice_vector -1.5160677204656117 2.6259063195615671 0.0000000000000000 
lattice_vector -0.0000000000000000 0.0000000000000000 19.4256833098325181 
atom 0.0000000000000005 1.7506042130410464 8.4039067943110766 Ti
atom 1.5160677204656117 0.8753021065205232 11.0217765155214984 Ti
atom -0.0000000000000000 -0.0000000000000000 9.7128416549161809 C
atom 0.0000000000000005 1.7506042130410464 11.9327426636278275 O
atom 1.5160677204656117 0.8753021065205232 7.4929406462046337 O
