#=======================================================
#FHI-aims file: /home/leitherer/nomad/nomad-lab-base/apt/PROTOTYPES/2D_materials/TiCl3/TiCl3_Cl6Ti2.txt
#Created using the Atomic Simulation Environment (ASE)
#=======================================================
lattice_vector 6.3339891669865933 -0.0000000000000000 0.0000000000000000 
lattice_vector -3.1669945834932971 5.4853955259058242 0.0000000000000000 
lattice_vector 0.0000000000000000 -0.0000000000000000 18.0458631724654026 
atom 3.1669945834932958 1.8284651753019416 9.0228419153414201 Ti
initial_moment         0.579112
atom -0.0000000000000048 3.6569303506038833 9.0230110671018480 Ti
initial_moment        -0.579462
atom 2.6419029449099662 0.0000367694430401 7.5016874861365617 Cl
initial_moment         0.000002
atom 1.8460749543100625 3.1974220765593433 7.5016874861365617 Cl
initial_moment         0.000002
atom -1.3209833157267685 2.2879366799034324 7.5016874861365617 Cl
initial_moment         0.000002
atom 2.6419020539180349 0.0000592974994102 10.5441796518013646 Cl
initial_moment        -0.000000
atom 1.8460949096751123 3.1974115841529014 10.5441796518013646 Cl
initial_moment        -0.000000
atom -1.3210023800998802 2.2879246442535242 10.5441796518013646 Cl
initial_moment        -0.000000
