#=======================================================
#FHI-aims file: /home/leitherer/nomad/nomad-lab-base/apt/PROTOTYPES/Ternaries/3_halides_cubic/3_halides_cubic_CsI3Sn.txt
#Created using the Atomic Simulation Environment (ASE)
#=======================================================
lattice_vector 6.1385699999999996 0.0000000000000000 0.0000000000000000 
lattice_vector 0.0000000000000000 6.1385699999999996 0.0000000000000000 
lattice_vector 0.0000000000000000 0.0000000000000000 6.1385699999999996 
atom 0.0458000000000000 0.0458000000000000 0.0458000000000000 Sn
atom 3.1015000000000001 0.0095000000000000 0.0095000000000000 I
atom 0.0095000000000000 3.1015000000000001 0.0095000000000000 I
atom 0.0095000000000000 0.0095000000000000 3.1015000000000001 I
atom 3.1591999999999998 3.1591999999999998 3.1591999999999998 Cs
