#=======================================================
#FHI-aims file: /home/leitherer/nomad/nomad-lab-base/apt/PROTOTYPES/Ternaries/327_RP/327_RP_Ca6Ge4O14.txt
#Created using the Atomic Simulation Environment (ASE)
#=======================================================
lattice_vector 3.7837600000000000 0.0000000000000000 0.0000000000000000 
lattice_vector 0.0000000000000002 3.7837600000000000 0.0000000000000000 
lattice_vector 0.0000000000000013 0.0000000000000013 21.4706000000000010 
atom 0.0317835840000007 0.0000000000000007 10.7353000000000005 Ca
atom 1.8918800000000002 1.8918800000000000 0.0000000000000000 Ca
atom 0.0012864784000009 0.0000000000000009 14.7335551319999993 Ca
atom 0.0012864784000004 0.0000000000000004 6.7370448680000008 Ca
atom 1.8921070256000003 1.8918800000000002 3.9982551320000002 Ca
atom 1.8921070256000012 1.8918800000000011 17.4723448680000004 Ca
atom 0.0001135128000012 0.0000000000000012 19.3310547100000001 Ge
atom 0.0001135128000001 0.0000000000000001 2.1395452900000000 Ge
atom 1.8955124096000004 1.8918800000000005 8.5955400040000001 Ge
atom 1.8955124096000009 1.8918800000000009 12.8750599959999992 Ge
atom 0.0000000000000000 0.0000000000000000 0.0000000000000000 O
atom 1.8893070432000008 1.8918800000000007 10.7353000000000005 O
atom 0.0001891880000011 0.0000000000000011 17.2705212279999998 O
atom 0.0001891880000003 0.0000000000000003 4.2000787720000003 O
atom 1.8946043072000009 1.8918800000000005 6.5352212280000002 O
atom 1.8946043072000014 1.8918800000000009 14.9353787720000017 O
atom 1.8918800000000011 0.0000000000000012 19.3669106120000016 O
atom 0.0000000000000013 1.8918800000000011 19.3669106120000016 O
atom 1.8918800000000002 0.0000000000000001 2.1034746820000003 O
atom 0.0000000000000002 1.8918800000000002 2.1034746820000003 O
atom 1.8899124448000004 0.0000000000000005 8.6316106119999993 O
atom 0.0021189056000006 1.8918800000000005 8.6316106119999993 O
atom 1.8899124448000009 0.0000000000000008 12.8389893879999999 O
atom 0.0021189056000009 1.8918800000000009 12.8389893879999999 O
