#=======================================================
#FHI-aims file: /home/leitherer/nomad/nomad-lab-base/apt/PROTOTYPES/2D_materials/BiI3/BiI3_Bi2I6.txt
#Created using the Atomic Simulation Environment (ASE)
#=======================================================
lattice_vector 7.8321263678413917 -0.0000000000000000 0.0000000000000000 
lattice_vector -3.9160631839206967 6.7828204002005874 0.0000000000000000 
lattice_vector -0.0000000000000000 0.0000000000000000 18.6216975644183691 
atom 3.9160631839206932 2.2609401334001960 9.3105623749666595 Bi
atom 0.0000000000000007 4.5218802668003919 9.3111351894518535 Bi
atom 5.0550207470198094 0.0001409454047118 7.4877615488461977 I
atom 1.3886748727118583 2.4049735439217468 7.4877615488461977 I
atom -2.5276324358108764 4.3777059108740914 7.4877615488461977 I
atom 2.7771056208218892 -0.0001409454064202 11.1339360155724254 I
atom 2.5273883112072655 4.3778468562794917 11.1339360155724254 I
atom -1.3884307481084135 2.4051144893275263 11.1339360155724254 I
