#=======================================================
#FHI-aims file: /home/leitherer/nomad/nomad-lab-base/apt/PROTOTYPES/2D_materials/TiS3/TiS3_S6Ti2.txt
#Created using the Atomic Simulation Environment (ASE)
#=======================================================
lattice_vector 5.0307745973870608 -0.0000000000000000 0.0000000000000000 
lattice_vector -0.0000000000000000 3.4187141195628263 0.0000000000000000 
lattice_vector 0.0000000000000000 0.0000000000000000 20.6890926217220539 
atom 3.1777204552724712 0.8546785279343587 11.6845358114308748 Ti
atom 0.6618535652486469 2.5640355850738672 9.0045523429595047 Ti
atom 0.6622524917467451 0.8546785324907620 10.7845721931423562 S
atom 3.1773253552118197 2.5640355803784312 9.9045154821038555 S
atom 1.6883631979190428 0.8546785305723561 7.4979219090093814 S
atom 2.1512197224855760 2.5640355823135104 13.1911729094501684 S
atom -0.3658519581244865 0.8546785307309636 7.4991499904748151 S
atom 4.2054348034651676 2.5640355822386289 13.1899308355089584 S
