# A_oC4_63_c params=2.8444,2.06331739558,1.73379271551,0.10228 SG#=63 [ANRL doi: 10.1016/j.commatsci.2017.01.017 (part 1), arXiv:1806.07864 (part 2)]
# AFLOW::AIMS BEGIN 
lattice_vector    1.42220000000000  -2.93444999999388   0.00000000000000
lattice_vector    1.42220000000000   2.93444999999388   0.00000000000000
lattice_vector    0.00000000000000   0.00000000000000   4.93159999999664
atom_frac   -0.10228000000000    0.10228000000000    0.25000000000000  U 
atom_frac    0.10228000000000   -0.10228000000000    0.75000000000000  U 
# AFLOW::AIMS END 
