#=======================================================
#FHI-aims file: /home/leitherer/nomad/nomad-lab-base/apt/PROTOTYPES/Quaternaries/Cu2ZnSiS4/Cu2ZnSiS4_Cu4S8Si2Zn2.txt
#Created using the Atomic Simulation Environment (ASE)
#=======================================================
lattice_vector 7.2806651036555730 0.0000000000000000 0.0000000000000000 
lattice_vector 0.0000000000000004 6.3712346279461798 0.0000000633666892 
lattice_vector 0.0000000000000004 0.0000000593179505 6.0855703830528096 
atom 3.6403325518277931 1.0836689015032750 3.0379027570654844 Si
atom 0.0000000000000003 5.2875658191199504 -0.0048823864155218 Si
atom 3.6403325518277949 5.3999186184677281 6.0767572688943199 Zn
atom 0.0000000000000003 0.9713161131636874 3.0339721096459269 Zn
atom 5.4447102564685013 4.2868545883380431 2.9731934321863887 Cu
atom 1.8359548471870819 4.2868545883380431 2.9731934321863887 Cu
atom 5.4762873964956498 2.0843800730547022 6.0159786473047001 Cu
atom 1.8043777071599358 2.0843800730547022 6.0159786473047001 Cu
atom 3.6403325518277931 1.1522411670046264 0.8834109240896765 S
atom 0.0000000000000006 5.2189934831478455 3.9261961516478552 S
atom 3.6403325518277949 5.4299781688212185 3.7477254038127366 S
atom 0.0000000000000001 0.9412564888554005 0.7049402309428238 S
atom 5.5423854394902765 4.2284029358612933 0.7197004324085884 S
atom 1.7382796641653089 4.2284029358612933 0.7197004324085884 S
atom 5.3786122099092148 2.1428317155554506 3.7624856421041599 S
atom 1.9020528937463657 2.1428317155554506 3.7624856421041599 S
