# A_hP4_194_ac params=3.77,3.2175066313 SG#=194 [ANRL doi: 10.1016/j.commatsci.2017.01.017 (part 1), arXiv:1806.07864 (part 2)]
# AFLOW::AIMS BEGIN 
lattice_vector    1.88500000000000  -3.26491577226733   0.00000000000000
lattice_vector    1.88500000000000   3.26491577226733   0.00000000000000
lattice_vector    0.00000000000000   0.00000000000000  12.13000000000100
atom_frac    0.00000000000000    0.00000000000000    0.00000000000000  La 
atom_frac    0.00000000000000    0.00000000000000    0.50000000000000  La 
atom_frac    0.33333333333333    0.66666666666667    0.25000000000000  La 
atom_frac    0.66666666666667    0.33333333333333    0.75000000000000  La 
# AFLOW::AIMS END 
