#=======================================================
#FHI-aims file: /home/leitherer/nomad/nomad-lab-base/apt/PROTOTYPES/Ternaries/3_halides_tetragonal/3_halides_tetragonal_Cl12Cs4Sn4.txt
#Created using the Atomic Simulation Environment (ASE)
#=======================================================
lattice_vector 7.7106599999999998 0.0000000000000000 0.0000000000000000 
lattice_vector 0.0000000000000000 7.7106300000000001 0.0000000000000000 
lattice_vector 0.0000000000000000 0.0000000000000000 11.0593000000000004 
atom 1.6301000000000001 5.4454000000000002 11.0363000000000007 Cl
atom 2.2557000000000000 6.0709999999999997 5.5044000000000004 Cl
atom 1.6448000000000000 2.2098000000000000 5.4920000000000000 Cl
atom 2.2667999999999999 1.5883000000000000 11.0455000000000005 Cl
atom 6.1135999999999999 5.4528999999999996 5.5152999999999999 Cl
atom 5.4904999999999999 6.0762999999999998 11.0260999999999996 Cl
atom 6.1192000000000002 2.2237000000000000 11.0365000000000002 Cl
atom 5.4969999999999999 1.6014999999999999 5.5038999999999998 Cl
atom 0.0055000000000000 0.0009000000000000 8.2937999999999992 Cl
atom 3.8731000000000000 3.8441999999999998 2.7627000000000002 Cl
atom 7.7092999999999998 7.7055999999999996 2.7625999999999999 Cl
atom 3.8668000000000000 3.8374999999999999 8.2940000000000005 Cl
atom 0.0183000000000000 7.6883999999999997 11.0452999999999992 Sn
atom 3.8742000000000001 3.8336999999999999 5.5175000000000001 Sn
atom 0.0227000000000000 7.6924999999999999 5.5175000000000001 Sn
atom 3.8765000000000001 3.8365000000000000 11.0452999999999992 Sn
atom 0.0211000000000000 3.8248000000000002 8.2939000000000007 Cs
atom 3.8883999999999999 7.6872999999999996 2.7456999999999998 Cs
atom 0.0383000000000000 3.8083999999999998 2.7406999999999999 Cs
atom 3.9011999999999998 7.6729000000000003 8.2894000000000005 Cs
