# A_hR3_166_ac params=3.62036,7.25049442597,0.22222 SG#=166 [ANRL doi: 10.1016/j.commatsci.2017.01.017 (part 1), arXiv:1806.07864 (part 2)]
# AFLOW::AIMS BEGIN 
lattice_vector    1.81018000000000  -1.04510791028168   8.74980000000158
lattice_vector    0.00000000000000   2.09021582056335   8.74980000000158
lattice_vector   -1.81018000000000  -1.04510791028168   8.74980000000158
atom_frac    0.00000000000000    0.00000000000000    0.00000000000000  Sm 
atom_frac    0.22222000000000    0.22222000000000    0.22222000000000  Sm 
atom_frac   -0.22222000000000   -0.22222000000000   -0.22222000000000  Sm 
# AFLOW::AIMS END 
