#=======================================================
#FHI-aims file: /home/leitherer/nomad/nomad-lab-base/apt/PROTOTYPES/2D_materials/C/C_C2.txt
#Created using the Atomic Simulation Environment (ASE)
#=======================================================
lattice_vector 2.4672312604313453 -0.0000000000000000 0.0000000000000000 
lattice_vector -1.2336156302156720 2.1366849485446453 0.0000000000000000 
lattice_vector 0.0000000000000000 0.0000000000000000 15.0000000000000000 
atom 0.0000000000000000 0.0000000000000000 7.4999999732425797 C
atom 1.2336156302156727 0.7122283161815485 7.5000000054917120 C
