#=======================================================
#FHI-aims file: /home/leitherer/nomad/nomad-lab-base/apt/PROTOTYPES/2D_materials/ScPSe3/ScPSe3_P2Sc2Se6.txt
#Created using the Atomic Simulation Environment (ASE)
#=======================================================
lattice_vector 6.6853858593984503 0.0000000000000005 0.0000000000000000 
lattice_vector -3.3426929296992247 5.7896046229118436 0.0000000000000000 
lattice_vector -0.0000000000000000 0.0000000000000000 18.4116428452021843 
atom 0.0001703696081459 0.0000407581137841 9.1436439116095727 Sc
atom 0.0000071606181560 3.8597319362965257 9.1445552841942757 Sc
atom 3.3426130252830837 1.9298998806142966 8.3909214873075690 P
atom 3.3425427155414877 1.9296914309249791 10.6919689311723207 P
atom 2.2983555308315329 0.1202316637270993 7.5090539215083796 Se
atom 5.4317827870810387 1.9302100094991366 7.5092129618122083 Se
atom 2.2977898440531503 3.7390426701527537 7.5092403202263469 Se
atom 4.5646952839600399 4.0467691165818644 10.7205630582327291 Se
atom 0.8983846182720342 1.9298323760455016 10.7206407295248969 Se
atom 4.5652075021974818 -0.1863839300810728 10.7205236807615041 Se
