# A_tI4_141_a params=5.8318,0.545611989437 SG#=141 [ANRL doi: 10.1016/j.commatsci.2017.01.017 (part 1), arXiv:1806.07864 (part 2)]
# AFLOW::AIMS BEGIN 
lattice_vector   -2.91590000000000   2.91590000000000   1.59094999999935
lattice_vector    2.91590000000000  -2.91590000000000   1.59094999999935
lattice_vector    2.91590000000000   2.91590000000000  -1.59094999999935
atom_frac    0.87500000000000    0.12500000000000    0.75000000000000  Sn 
atom_frac    0.12500000000000    0.87500000000000    0.25000000000000  Sn 
# AFLOW::AIMS END 
