#=======================================================
#FHI-aims file: /home/leitherer/nomad/nomad-lab-base/apt/PROTOTYPES/2D_materials/Ti3C2/Ti3C2_C2Ti3.txt
#Created using the Atomic Simulation Environment (ASE)
#=======================================================
lattice_vector 3.0986955789129342 0.0000000000000000 0.0000000000000000 
lattice_vector -1.5493477894564676 2.6835490899331269 0.0000000000000000 
lattice_vector -0.0000000000000000 0.0000000000000000 19.6751670733402726 
atom -0.0000000000000000 -0.0000000000000000 9.8375835366701292 Ti
initial_moment         0.024555
atom 1.5493477894564680 0.8945163633110406 12.1665656497480299 Ti
initial_moment         0.509047
atom 1.5493477894564680 0.8945163633110406 7.5086014235922480 Ti
initial_moment         0.509047
atom 0.0000000000000017 1.7890327266220811 11.1610579486499439 C
initial_moment        -0.025492
atom 0.0000000000000017 1.7890327266220811 8.5141091246903162 C
initial_moment        -0.025492
