#=======================================================
#FHI-aims file: /home/leitherer/nomad/nomad-lab-base/apt/PROTOTYPES/Ternaries/3_cubic/3_cubic_AgNbO3.txt
#Created using the Atomic Simulation Environment (ASE)
#=======================================================
lattice_vector 4.0631800000000000 0.0000000000000000 0.0000000000000000 
lattice_vector 0.0000000000000002 4.0631800000000000 0.0000000000000000 
lattice_vector 0.0000000000000002 0.0000000000000002 4.0631800000000000 
atom 0.0874802654000000 0.0000000000000000 0.0000000000000000 Ag
atom 2.1169167799999999 2.0315900000000000 2.0315900000000000 Nb
atom 1.9651976388000001 0.0000000000000001 2.0315900000000000 O
atom 1.9651976388000001 2.0315900000000000 0.0000000000000000 O
atom 4.0336000496000004 2.0315900000000000 2.0315900000000000 O
