#=======================================================
#FHI-aims file: /home/leitherer/nomad/nomad-lab-base/apt/PROTOTYPES/2D_materials/AuSe/AuSe_Au2Se2.txt
#Created using the Atomic Simulation Environment (ASE)
#=======================================================
lattice_vector 3.7316481758848292 -0.0000000000000000 0.0000000000000000 
lattice_vector -0.0000000000000000 6.3258500380365223 0.0000000000000000 
lattice_vector 0.0000000000000000 0.0000000000000000 17.5485858999999991 
atom 0.0000000000000000 -0.0002206761159284 8.7743976706074900 Au
atom 0.0000000000000000 2.0653896201526054 10.0704046171507500 Se
atom 1.8658240929311039 3.1626842344408490 8.7743634734539100 Au
atom 0.0000000000000000 4.2595669237411133 7.4780079800091332 Se
