#=======================================================
#FHI-aims file: /home/leitherer/nomad/nomad-lab-base/apt/PROTOTYPES/2D_materials/Ti4C3H2O2/Ti4C3H2O2_C3H2O2Ti4.txt
#Created using the Atomic Simulation Environment (ASE)
#=======================================================
lattice_vector 3.0911403629738299 -0.0000000000000000 0.0000000000000000 
lattice_vector -1.5455701814869154 2.6770060809987828 0.0000000000000000 
lattice_vector -0.0000000000000000 0.0000000000000000 26.6473202239827600 
atom 0.0000000000000029 1.7846707206658559 12.1310118746583981 Ti
atom 1.5455701814869134 0.8923353603329279 14.5217388438520469 Ti
atom -0.0000000000000000 0.0000000000000000 9.7318391330787470 Ti
atom 0.0000000000000000 -0.0000000000000000 16.9207647322351598 Ti
atom -0.0000000000000000 -0.0000000000000000 13.3264974182302964 C
atom 1.5455701814869134 0.8923353603329279 10.7978734495913216 C
atom 0.0000000000000029 1.7846707206658559 15.8548168278744530 C
atom 1.5455701814869134 0.8923353603329279 18.2019031631521315 O
atom 0.0000000000000029 1.7846707206658559 8.4505731162858737 O
atom 1.5455701814869134 0.8923353603329279 19.1744421660972293 H
atom 0.0000000000000029 1.7846707206658559 7.4780248673975507 H
