#=======================================================
#FHI-aims file: /home/leitherer/nomad/nomad-lab-base/apt/PROTOTYPES/2D_materials/CH/CH_C2H2.txt
#Created using the Atomic Simulation Environment (ASE)
#=======================================================
lattice_vector 2.5389328860949547 -0.0000000000000000 0.0000000000000000 
lattice_vector -1.2694664430427056 2.1987803778581609 0.0000000000000000 
lattice_vector 0.0000000000000010 0.0000000000000018 16.7199999999999989 
atom -1.2694664430427045 2.1987803778581614 8.1306584804233140 C
atom -0.0000000002004089 1.4658535852387748 8.5893403999903537 C
atom 0.0000000000000006 0.0000000000000007 7.0204379775765045 H
atom -0.0000000002004089 1.4658535852387751 9.6995639032881176 H
