# AB_cP8_198_a_a params=4.48688,0.13652,0.8424 SG#=198 [ANRL doi: 10.1016/j.commatsci.2017.01.017 (part 1), arXiv:1806.07864 (part 2)]
# AFLOW::AIMS BEGIN 
lattice_vector    4.48688000000000   0.00000000000000   0.00000000000000
lattice_vector    0.00000000000000   4.48688000000000   0.00000000000000
lattice_vector    0.00000000000000   0.00000000000000   4.48688000000000
atom_frac    0.13652000000000    0.13652000000000    0.13652000000000  Fe 
atom_frac    0.36348000000000   -0.13652000000000    0.63652000000000  Fe 
atom_frac   -0.13652000000000    0.63652000000000    0.36348000000000  Fe 
atom_frac    0.63652000000000    0.36348000000000   -0.13652000000000  Fe 
atom_frac    0.84240000000000    0.84240000000000    0.84240000000000  Si 
atom_frac   -0.34240000000000   -0.84240000000000    1.34240000000000  Si 
atom_frac   -0.84240000000000    1.34240000000000   -0.34240000000000  Si 
atom_frac    1.34240000000000   -0.34240000000000   -0.84240000000000  Si 
# AFLOW::AIMS END 
