# A_hP1_191_a params=3.2062,0.931195808122 SG#=191 [ANRL doi: 10.1016/j.commatsci.2017.01.017 (part 1), arXiv:1806.07864 (part 2)]
# AFLOW::AIMS BEGIN 
lattice_vector    1.60310000000000  -2.77665064961367   0.00000000000000
lattice_vector    1.60310000000000   2.77665064961367   0.00000000000000
lattice_vector    0.00000000000000   0.00000000000000   2.98560000000076
atom_frac    0.00000000000000    0.00000000000000    0.00000000000000  Sn 
# AFLOW::AIMS END 
