#=======================================================
#FHI-aims file: /home/leitherer/nomad/nomad-lab-base/apt/PROTOTYPES/2D_materials/GaSe/GaSe_Ga2Se2.txt
#Created using the Atomic Simulation Environment (ASE)
#=======================================================
lattice_vector 3.8352265469571529 0.0000000000000000 0.0000000000000000 
lattice_vector -1.9176132787448159 3.3214305004866609 0.0000000000000000 
lattice_vector 0.0000000000000000 0.0000000000000000 20.8072997213841973 
atom 0.0000603897570947 2.2142475473330645 11.6385319131568465 Ga
atom 1.9177321469829507 1.1070703187727535 7.9973077297449686 Se
atom -0.0001188676515172 0.0000731827830938 12.8099908699843823 Se
atom -0.0000603887232209 2.2143264542413932 9.1687663243998863 Ga
