#=======================================================
#FHI-aims file: /home/leitherer/nomad/nomad-lab-base/apt/PROTOTYPES/2D_materials/MnPSe3/MnPSe3_Mn2P2Se6.txt
#Created using the Atomic Simulation Environment (ASE)
#=======================================================
lattice_vector 6.3896998877456062 0.0000000000000005 0.0000000000000000 
lattice_vector -3.1948499438728022 5.5375669364424525 0.0000000000000000 
lattice_vector 0.0000000000000000 0.0000000000000000 18.1861857434855771 
atom -0.0019285233638495 -0.0053172848622236 9.0931729627679658 Mn
initial_moment         4.220213
atom 0.0006762411617642 3.6969302705411264 9.0955291505009619 Mn
initial_moment        -4.220285
atom 3.1975345603335179 1.8453464502437755 7.9719067946336555 P
initial_moment         0.000050
atom 3.1929805127750015 1.8464990499106981 10.2114815622722102 P
initial_moment        -0.000043
atom 2.1245013662876713 -0.0136430205779333 7.3985182474213982 Se
initial_moment        -0.000036
atom 5.3446887812368704 1.8459241736109875 7.4043812240124112 Se
initial_moment         0.000007
atom 2.1237225471119063 3.7037237636505798 7.3969143753991933 Se
initial_moment         0.000043
atom 4.2645558870691804 3.7053902614722989 10.7873807307671719 Se
initial_moment        -0.000041
atom 1.0464365777802580 1.8458955548722225 10.7837550329385703 Se
initial_moment         0.000035
atom 4.2656592794086530 -0.0118702835013582 10.7883659379442651 Se
initial_moment         0.000015
