#=======================================================
#FHI-aims file: /home/leitherer/nomad/nomad-lab-base/apt/PROTOTYPES/2D_materials/BN/BN_BN.txt
#Created using the Atomic Simulation Environment (ASE)
#=======================================================
lattice_vector 2.5102669943090916 0.0000000000000000 0.0000000000000000 
lattice_vector -1.2551334971545458 2.1739549873532802 0.0000000000000000 
lattice_vector 0.0000000000000000 0.0000000000000000 15.0000000000000000 
atom 0.0000000000000002 1.4493033249021867 7.5000000000000000 B
atom 1.2551334971545458 0.7246516624510934 7.5000000000000000 N
