#=======================================================
#FHI-aims file: /home/leitherer/nomad/nomad-lab-base/apt/PROTOTYPES/2D_materials/PdS2/PdS2_Pd2S4.txt
#Created using the Atomic Simulation Environment (ASE)
#=======================================================
lattice_vector 5.4833185437316843 -0.0000000000000000 0.0000000000000000 
lattice_vector 0.0000000000000000 5.5826801894980207 0.0000000000000000 
lattice_vector 0.0000000000000000 0.0000000000000000 16.3359055923905032 
atom 2.7416592566514546 0.0000000134521130 8.1679527759566941 Pd
atom -0.0000000129869691 2.7913400825577139 8.1679528191133279 Pd
atom 0.5738262910097903 0.6223606631221960 7.5315860014412124 S
atom 3.3154856019826444 2.1689794218832055 8.8043196504250503 S
atom 4.9094922206929059 4.9603195013442383 8.8043195859017978 S
atom 2.1678329123964177 3.4137007888476911 7.5315859473618012 S
