# AB_oP8_62_c_c params=5.495,0.536123748863,0.737579617834,0.125,0.69,-0.18,0.125 SG#=62 [ANRL doi: 10.1016/j.commatsci.2017.01.017 (part 1), arXiv:1806.07864 (part 2)]
# AFLOW::AIMS BEGIN 
lattice_vector    5.49500000000000   0.00000000000000   0.00000000000000
lattice_vector    0.00000000000000   2.94600000000218   0.00000000000000
lattice_vector    0.00000000000000   0.00000000000000   4.05299999999783
atom_frac    0.12500000000000    0.25000000000000    0.69000000000000  B 
atom_frac    0.37500000000000    0.75000000000000    1.19000000000000  B 
atom_frac   -0.12500000000000    0.75000000000000   -0.69000000000000  B 
atom_frac    0.62500000000000    0.25000000000000   -0.19000000000000  B 
atom_frac   -0.18000000000000    0.25000000000000    0.12500000000000  Fe 
atom_frac    0.68000000000000    0.75000000000000    0.62500000000000  Fe 
atom_frac    0.18000000000000    0.75000000000000   -0.12500000000000  Fe 
atom_frac    0.32000000000000    0.25000000000000    0.37500000000000  Fe 
# AFLOW::AIMS END 

