# A_hR1_166_a params=5.07846,0.968139947937 SG#=166 [ANRL doi: 10.1016/j.commatsci.2017.01.017 (part 1), arXiv:1806.07864 (part 2)]
# AFLOW::AIMS BEGIN 
lattice_vector    2.53923000000000  -1.46602512403437   1.63888666666671
lattice_vector    0.00000000000000   2.93205024806875   1.63888666666671
lattice_vector   -2.53923000000000  -1.46602512403437   1.63888666666671
atom_frac    0.00000000000000    0.00000000000000    0.00000000000000  Po 
# AFLOW::AIMS END 

