# A_hP3_152_a params=4.3662,1.13453346159,0.2254 SG#=152 [ANRL doi: 10.1016/j.commatsci.2017.01.017 (part 1), arXiv:1806.07864 (part 2)]
# AFLOW::AIMS BEGIN 
lattice_vector    2.18310000000000  -3.78124011800362   0.00000000000000
lattice_vector    2.18310000000000   3.78124011800362   0.00000000000000
lattice_vector    0.00000000000000   0.00000000000000   4.95359999999426
atom_frac    0.22540000000000    0.00000000000000    0.33333333333333  Se 
atom_frac    0.00000000000000    0.22540000000000    0.66666666666667  Se 
atom_frac   -0.22540000000000   -0.22540000000000    0.00000000000000  Se 
# AFLOW::AIMS END 
