#=======================================================
#FHI-aims file: /home/leitherer/nomad/nomad-lab-base/apt/PROTOTYPES/2D_materials/MoSSe/MoSSe_MoSSe.txt
#Created using the Atomic Simulation Environment (ASE)
#=======================================================
lattice_vector 3.2508502145972979 -0.0000000000000000 0.0000000000000000 
lattice_vector -1.6254251072986494 2.8153188697393543 0.0000000000000000 
lattice_vector 0.0000000000000000 0.0000000000000000 18.2324859828602932 
atom 0.0000000000000000 0.0000000000000000 9.2041152671570874 Mo
atom 1.6254251072986485 0.9384396232464514 10.7324859828602897 S
atom 1.6254251072986485 0.9384396232464514 7.5000000000000000 Se
