# AB_hP4_194_c_a params=3.619,1.39375518099 SG#=194 [ANRL doi: 10.1016/j.commatsci.2017.01.017 (part 1), arXiv:1806.07864 (part 2)]
# AFLOW::AIMS BEGIN 
lattice_vector    1.80950000000000  -3.13414593629588   0.00000000000000
lattice_vector    1.80950000000000   3.13414593629588   0.00000000000000
lattice_vector    0.00000000000000   0.00000000000000   5.04400000000281
atom_frac    0.33333333333333    0.66666666666667    0.25000000000000  As 
atom_frac    0.66666666666667    0.33333333333333    0.75000000000000  As 
atom_frac    0.00000000000000    0.00000000000000    0.00000000000000  Ni 
atom_frac    0.00000000000000    0.00000000000000    0.50000000000000  Ni 
# AFLOW::AIMS END 
