#=======================================================
#FHI-aims file: /home/leitherer/nomad/nomad-lab-base/apt/PROTOTYPES/2D_materials/RhO/RhO_O2Rh2.txt
#Created using the Atomic Simulation Environment (ASE)
#=======================================================
lattice_vector 2.9781800674538075 0.0000000000000000 0.0000000000000000 
lattice_vector 0.0000000000000000 4.7184264903176176 0.0000000000000000 
lattice_vector 0.0000000000000000 0.0000000000000000 17.0707260400000003 
atom 0.0000000000000000 0.1157141319735975 8.3924737816134005 Rh
atom -0.0000000000000001 1.5421050872745070 9.6943194299693971 O
atom 1.4890900358707391 2.2687194694546240 8.5247708009550252 Rh
atom 0.0000000000000000 3.1502796477487078 7.5305473245305992 O
