# A_tI2_139_a params=3.932,0.823499491353 SG#=139 [ANRL doi: 10.1016/j.commatsci.2017.01.017 (part 1), arXiv:1806.07864 (part 2)]
# AFLOW::AIMS BEGIN 
lattice_vector   -1.96600000000000   1.96600000000000   1.61900000000000
lattice_vector    1.96600000000000  -1.96600000000000   1.61900000000000
lattice_vector    1.96600000000000   1.96600000000000  -1.61900000000000
atom_frac    0.00000000000000    0.00000000000000    0.00000000000000  Pa 
# AFLOW::AIMS END 
