#=======================================================
#FHI-aims file: /home/ziletti/PycharmProjects/nomadml/tests/tmp_folder/C-M1B6jU_t-kPPKkoFU9kZkEbx332_op_0_aims.in
#Created using the Atomic Simulation Environment (ASE)
#=======================================================
lattice_vector 0.0000000000000000 7.4489999999999998 7.4489999999999998 
lattice_vector 7.4489999999999998 0.0000000000000000 7.4489999999999998 
lattice_vector 7.4489999999999998 7.4489999999999998 0.0000000000000000 
atom 0.0000000000000000 0.0000000000000000 0.0000000000000000 Li
atom 2.4830000000000001 2.4830000000000001 2.4830000000000001 Cl
atom 2.4830000000000001 2.4830000000000001 0.0000000000000000 Li
atom 4.9660000000000002 4.9660000000000002 2.4830000000000001 Cl
atom 4.9660000000000002 4.9660000000000002 0.0000000000000000 Li
atom 7.4489999999999998 7.4489999999999998 2.4830000000000001 Cl
atom 2.4830000000000001 0.0000000000000000 2.4830000000000001 Li
atom 4.9660000000000002 2.4830000000000001 4.9660000000000002 Cl
atom 4.9660000000000002 2.4830000000000001 2.4830000000000001 Li
atom 7.4489999999999998 4.9660000000000002 4.9660000000000002 Cl
atom 7.4489999999999998 4.9660000000000002 2.4830000000000001 Li
atom 9.9320000000000004 7.4489999999999998 4.9660000000000002 Cl
atom 4.9660000000000002 0.0000000000000000 4.9660000000000002 Li
atom 7.4489999999999998 2.4830000000000001 7.4489999999999998 Cl
atom 7.4489999999999998 2.4830000000000001 4.9660000000000002 Li
atom 9.9320000000000004 4.9660000000000002 7.4489999999999998 Cl
atom 9.9320000000000004 4.9660000000000002 4.9660000000000002 Li
atom 12.4150000000000009 7.4489999999999998 7.4489999999999998 Cl
atom 0.0000000000000000 2.4830000000000001 2.4830000000000001 Li
atom 2.4830000000000001 4.9660000000000002 4.9660000000000002 Cl
atom 2.4830000000000001 4.9660000000000002 2.4830000000000001 Li
atom 4.9660000000000002 7.4489999999999998 4.9660000000000002 Cl
atom 4.9660000000000002 7.4489999999999998 2.4830000000000001 Li
atom 7.4489999999999998 9.9320000000000004 4.9660000000000002 Cl
atom 2.4830000000000001 2.4830000000000001 4.9660000000000002 Li
atom 4.9660000000000002 4.9660000000000002 7.4489999999999998 Cl
atom 4.9660000000000002 4.9660000000000002 4.9660000000000002 Li
atom 7.4489999999999998 7.4489999999999998 7.4489999999999998 Cl
atom 7.4489999999999998 7.4489999999999998 4.9660000000000002 Li
atom 9.9320000000000004 9.9320000000000004 7.4489999999999998 Cl
atom 4.9660000000000002 2.4830000000000001 7.4489999999999998 Li
atom 7.4489999999999998 4.9660000000000002 9.9320000000000004 Cl
atom 7.4489999999999998 4.9660000000000002 7.4489999999999998 Li
atom 9.9320000000000004 7.4489999999999998 9.9320000000000004 Cl
atom 9.9320000000000004 7.4489999999999998 7.4489999999999998 Li
atom 12.4150000000000009 9.9320000000000004 9.9320000000000004 Cl
atom 0.0000000000000000 4.9660000000000002 4.9660000000000002 Li
atom 2.4830000000000001 7.4489999999999998 7.4489999999999998 Cl
atom 2.4830000000000001 7.4489999999999998 4.9660000000000002 Li
atom 4.9660000000000002 9.9320000000000004 7.4489999999999998 Cl
atom 4.9660000000000002 9.9320000000000004 4.9660000000000002 Li
atom 7.4489999999999998 12.4150000000000009 7.4489999999999998 Cl
atom 2.4830000000000001 4.9660000000000002 7.4489999999999998 Li
atom 4.9660000000000002 7.4489999999999998 9.9320000000000004 Cl
atom 4.9660000000000002 7.4489999999999998 7.4489999999999998 Li
atom 7.4489999999999998 9.9320000000000004 9.9320000000000004 Cl
atom 7.4489999999999998 9.9320000000000004 7.4489999999999998 Li
atom 9.9320000000000004 12.4150000000000009 9.9320000000000004 Cl
atom 4.9660000000000002 4.9660000000000002 9.9320000000000004 Li
atom 7.4489999999999998 7.4489999999999998 12.4150000000000009 Cl
atom 7.4489999999999998 7.4489999999999998 9.9320000000000004 Li
atom 9.9320000000000004 9.9320000000000004 12.4150000000000009 Cl
atom 9.9320000000000004 9.9320000000000004 9.9320000000000004 Li
atom 12.4150000000000009 12.4150000000000009 12.4150000000000009 Cl
