#=======================================================
#FHI-aims file: /home/ziletti/PycharmProjects/nomadml/tests/tmp_folder/C0e8gRRxOvcJquPDa7SeYFk2OCiFS_op_0_aims.in
#Created using the Atomic Simulation Environment (ASE)
#=======================================================
lattice_vector 0.0000000000000000 7.9485000000000019 7.9485000000000019 
lattice_vector 7.9485000000000019 0.0000000000000000 7.9485000000000019 
lattice_vector 7.9485000000000019 7.9485000000000019 0.0000000000000000 
atom 0.0000000000000000 0.0000000000000000 0.0000000000000000 Zn
atom 1.3247500000000003 1.3247500000000003 1.3247500000000003 S
atom 2.6495000000000006 2.6495000000000006 0.0000000000000000 Zn
atom 3.9742500000000009 3.9742500000000009 1.3247500000000003 S
atom 5.2990000000000013 5.2990000000000013 0.0000000000000000 Zn
atom 6.6237500000000011 6.6237500000000011 1.3247500000000003 S
atom 2.6495000000000006 0.0000000000000000 2.6495000000000006 Zn
atom 3.9742500000000009 1.3247500000000003 3.9742500000000009 S
atom 5.2990000000000013 2.6495000000000006 2.6495000000000006 Zn
atom 6.6237500000000011 3.9742500000000009 3.9742500000000009 S
atom 7.9485000000000019 5.2990000000000013 2.6495000000000006 Zn
atom 9.2732500000000027 6.6237500000000011 3.9742500000000009 S
atom 5.2990000000000013 0.0000000000000000 5.2990000000000013 Zn
atom 6.6237500000000011 1.3247500000000003 6.6237500000000011 S
atom 7.9485000000000019 2.6495000000000006 5.2990000000000013 Zn
atom 9.2732500000000027 3.9742500000000009 6.6237500000000011 S
atom 10.5980000000000025 5.2990000000000013 5.2990000000000013 Zn
atom 11.9227500000000024 6.6237500000000011 6.6237500000000011 S
atom 0.0000000000000000 2.6495000000000006 2.6495000000000006 Zn
atom 1.3247500000000003 3.9742500000000009 3.9742500000000009 S
atom 2.6495000000000006 5.2990000000000013 2.6495000000000006 Zn
atom 3.9742500000000009 6.6237500000000011 3.9742500000000009 S
atom 5.2990000000000013 7.9485000000000019 2.6495000000000006 Zn
atom 6.6237500000000011 9.2732500000000027 3.9742500000000009 S
atom 2.6495000000000006 2.6495000000000006 5.2990000000000013 Zn
atom 3.9742500000000009 3.9742500000000009 6.6237500000000011 S
atom 5.2990000000000013 5.2990000000000013 5.2990000000000013 Zn
atom 6.6237500000000011 6.6237500000000011 6.6237500000000011 S
atom 7.9485000000000019 7.9485000000000019 5.2990000000000013 Zn
atom 9.2732500000000027 9.2732500000000027 6.6237500000000011 S
atom 5.2990000000000013 2.6495000000000006 7.9485000000000019 Zn
atom 6.6237500000000011 3.9742500000000009 9.2732500000000027 S
atom 7.9485000000000019 5.2990000000000013 7.9485000000000019 Zn
atom 9.2732500000000027 6.6237500000000011 9.2732500000000027 S
atom 10.5980000000000025 7.9485000000000019 7.9485000000000019 Zn
atom 11.9227500000000024 9.2732500000000027 9.2732500000000027 S
atom 0.0000000000000000 5.2990000000000013 5.2990000000000013 Zn
atom 1.3247500000000003 6.6237500000000011 6.6237500000000011 S
atom 2.6495000000000006 7.9485000000000019 5.2990000000000013 Zn
atom 3.9742500000000009 9.2732500000000027 6.6237500000000011 S
atom 5.2990000000000013 10.5980000000000025 5.2990000000000013 Zn
atom 6.6237500000000011 11.9227500000000024 6.6237500000000011 S
atom 2.6495000000000006 5.2990000000000013 7.9485000000000019 Zn
atom 3.9742500000000009 6.6237500000000011 9.2732500000000027 S
atom 5.2990000000000013 7.9485000000000019 7.9485000000000019 Zn
atom 6.6237500000000011 9.2732500000000027 9.2732500000000027 S
atom 7.9485000000000019 10.5980000000000025 7.9485000000000019 Zn
atom 9.2732500000000027 11.9227500000000024 9.2732500000000027 S
atom 5.2990000000000013 5.2990000000000013 10.5980000000000025 Zn
atom 6.6237500000000011 6.6237500000000011 11.9227500000000024 S
atom 7.9485000000000019 7.9485000000000019 10.5980000000000025 Zn
atom 9.2732500000000027 9.2732500000000027 11.9227500000000024 S
atom 10.5980000000000025 10.5980000000000025 10.5980000000000025 Zn
atom 11.9227500000000024 11.9227500000000024 11.9227500000000024 S
