#=======================================================
#FHI-aims file: /home/ziletti/PycharmProjects/nomadml/tests/tmp_folder/C0tj3NYHfrit7NB0ewfG-fIjRWuJD_op_0_aims.in
#Created using the Atomic Simulation Environment (ASE)
#=======================================================
lattice_vector 0.0000000000000000 7.6260000000000012 7.6260000000000012 
lattice_vector 7.6260000000000012 0.0000000000000000 7.6260000000000012 
lattice_vector 7.6260000000000012 7.6260000000000012 0.0000000000000000 
atom 0.0000000000000000 0.0000000000000000 0.0000000000000000 Be
atom 1.2710000000000001 1.2710000000000001 1.2710000000000001 Se
atom 2.5420000000000003 2.5420000000000003 0.0000000000000000 Be
atom 3.8130000000000006 3.8130000000000006 1.2710000000000001 Se
atom 5.0840000000000005 5.0840000000000005 0.0000000000000000 Be
atom 6.3550000000000004 6.3550000000000004 1.2710000000000001 Se
atom 2.5420000000000003 0.0000000000000000 2.5420000000000003 Be
atom 3.8130000000000006 1.2710000000000001 3.8130000000000006 Se
atom 5.0840000000000005 2.5420000000000003 2.5420000000000003 Be
atom 6.3550000000000004 3.8130000000000006 3.8130000000000006 Se
atom 7.6260000000000012 5.0840000000000005 2.5420000000000003 Be
atom 8.8970000000000020 6.3550000000000004 3.8130000000000006 Se
atom 5.0840000000000005 0.0000000000000000 5.0840000000000005 Be
atom 6.3550000000000004 1.2710000000000001 6.3550000000000004 Se
atom 7.6260000000000012 2.5420000000000003 5.0840000000000005 Be
atom 8.8970000000000020 3.8130000000000006 6.3550000000000004 Se
atom 10.1680000000000010 5.0840000000000005 5.0840000000000005 Be
atom 11.4390000000000018 6.3550000000000004 6.3550000000000004 Se
atom 0.0000000000000000 2.5420000000000003 2.5420000000000003 Be
atom 1.2710000000000001 3.8130000000000006 3.8130000000000006 Se
atom 2.5420000000000003 5.0840000000000005 2.5420000000000003 Be
atom 3.8130000000000006 6.3550000000000004 3.8130000000000006 Se
atom 5.0840000000000005 7.6260000000000012 2.5420000000000003 Be
atom 6.3550000000000004 8.8970000000000020 3.8130000000000006 Se
atom 2.5420000000000003 2.5420000000000003 5.0840000000000005 Be
atom 3.8130000000000006 3.8130000000000006 6.3550000000000004 Se
atom 5.0840000000000005 5.0840000000000005 5.0840000000000005 Be
atom 6.3550000000000004 6.3550000000000004 6.3550000000000004 Se
atom 7.6260000000000012 7.6260000000000012 5.0840000000000005 Be
atom 8.8970000000000020 8.8970000000000020 6.3550000000000004 Se
atom 5.0840000000000005 2.5420000000000003 7.6260000000000012 Be
atom 6.3550000000000004 3.8130000000000006 8.8970000000000020 Se
atom 7.6260000000000012 5.0840000000000005 7.6260000000000012 Be
atom 8.8970000000000020 6.3550000000000004 8.8970000000000020 Se
atom 10.1680000000000010 7.6260000000000012 7.6260000000000012 Be
atom 11.4390000000000018 8.8970000000000020 8.8970000000000020 Se
atom 0.0000000000000000 5.0840000000000005 5.0840000000000005 Be
atom 1.2710000000000001 6.3550000000000004 6.3550000000000004 Se
atom 2.5420000000000003 7.6260000000000012 5.0840000000000005 Be
atom 3.8130000000000006 8.8970000000000020 6.3550000000000004 Se
atom 5.0840000000000005 10.1680000000000010 5.0840000000000005 Be
atom 6.3550000000000004 11.4390000000000018 6.3550000000000004 Se
atom 2.5420000000000003 5.0840000000000005 7.6260000000000012 Be
atom 3.8130000000000006 6.3550000000000004 8.8970000000000020 Se
atom 5.0840000000000005 7.6260000000000012 7.6260000000000012 Be
atom 6.3550000000000004 8.8970000000000020 8.8970000000000020 Se
atom 7.6260000000000012 10.1680000000000010 7.6260000000000012 Be
atom 8.8970000000000020 11.4390000000000018 8.8970000000000020 Se
atom 5.0840000000000005 5.0840000000000005 10.1680000000000010 Be
atom 6.3550000000000004 6.3550000000000004 11.4390000000000018 Se
atom 7.6260000000000012 7.6260000000000012 10.1680000000000010 Be
atom 8.8970000000000020 8.8970000000000020 11.4390000000000018 Se
atom 10.1680000000000010 10.1680000000000010 10.1680000000000010 Be
atom 11.4390000000000018 11.4390000000000018 11.4390000000000018 Se
