#=======================================================
#FHI-aims file: /home/ziletti/PycharmProjects/nomadml/tests/tmp_folder/C2R4Ds9DFm8USF_AgHtQnWK1TkQiR_op_0_aims.in
#Created using the Atomic Simulation Environment (ASE)
#=======================================================
lattice_vector 0.0000000000000000 7.4144999999999994 7.4144999999999994 
lattice_vector 7.4144999999999994 0.0000000000000000 7.4144999999999994 
lattice_vector 7.4144999999999994 7.4144999999999994 0.0000000000000000 
atom 0.0000000000000000 0.0000000000000000 0.0000000000000000 In
atom 1.2357499999999999 1.2357499999999999 1.2357499999999999 N
atom 2.4714999999999998 2.4714999999999998 0.0000000000000000 In
atom 3.7072499999999997 3.7072499999999997 1.2357499999999999 N
atom 4.9429999999999996 4.9429999999999996 0.0000000000000000 In
atom 6.1787499999999991 6.1787499999999991 1.2357499999999999 N
atom 2.4714999999999998 0.0000000000000000 2.4714999999999998 In
atom 3.7072499999999997 1.2357499999999999 3.7072499999999997 N
atom 4.9429999999999996 2.4714999999999998 2.4714999999999998 In
atom 6.1787499999999991 3.7072499999999997 3.7072499999999997 N
atom 7.4144999999999994 4.9429999999999996 2.4714999999999998 In
atom 8.6502499999999998 6.1787499999999991 3.7072499999999997 N
atom 4.9429999999999996 0.0000000000000000 4.9429999999999996 In
atom 6.1787499999999991 1.2357499999999999 6.1787499999999991 N
atom 7.4144999999999994 2.4714999999999998 4.9429999999999996 In
atom 8.6502499999999998 3.7072499999999997 6.1787499999999991 N
atom 9.8859999999999992 4.9429999999999996 4.9429999999999996 In
atom 11.1217499999999987 6.1787499999999991 6.1787499999999991 N
atom 0.0000000000000000 2.4714999999999998 2.4714999999999998 In
atom 1.2357499999999999 3.7072499999999997 3.7072499999999997 N
atom 2.4714999999999998 4.9429999999999996 2.4714999999999998 In
atom 3.7072499999999997 6.1787499999999991 3.7072499999999997 N
atom 4.9429999999999996 7.4144999999999994 2.4714999999999998 In
atom 6.1787499999999991 8.6502499999999998 3.7072499999999997 N
atom 2.4714999999999998 2.4714999999999998 4.9429999999999996 In
atom 3.7072499999999997 3.7072499999999997 6.1787499999999991 N
atom 4.9429999999999996 4.9429999999999996 4.9429999999999996 In
atom 6.1787499999999991 6.1787499999999991 6.1787499999999991 N
atom 7.4144999999999994 7.4144999999999994 4.9429999999999996 In
atom 8.6502499999999998 8.6502499999999998 6.1787499999999991 N
atom 4.9429999999999996 2.4714999999999998 7.4144999999999994 In
atom 6.1787499999999991 3.7072499999999997 8.6502499999999998 N
atom 7.4144999999999994 4.9429999999999996 7.4144999999999994 In
atom 8.6502499999999998 6.1787499999999991 8.6502499999999998 N
atom 9.8859999999999992 7.4144999999999994 7.4144999999999994 In
atom 11.1217499999999987 8.6502499999999998 8.6502499999999998 N
atom 0.0000000000000000 4.9429999999999996 4.9429999999999996 In
atom 1.2357499999999999 6.1787499999999991 6.1787499999999991 N
atom 2.4714999999999998 7.4144999999999994 4.9429999999999996 In
atom 3.7072499999999997 8.6502499999999998 6.1787499999999991 N
atom 4.9429999999999996 9.8859999999999992 4.9429999999999996 In
atom 6.1787499999999991 11.1217499999999987 6.1787499999999991 N
atom 2.4714999999999998 4.9429999999999996 7.4144999999999994 In
atom 3.7072499999999997 6.1787499999999991 8.6502499999999998 N
atom 4.9429999999999996 7.4144999999999994 7.4144999999999994 In
atom 6.1787499999999991 8.6502499999999998 8.6502499999999998 N
atom 7.4144999999999994 9.8859999999999992 7.4144999999999994 In
atom 8.6502499999999998 11.1217499999999987 8.6502499999999998 N
atom 4.9429999999999996 4.9429999999999996 9.8859999999999992 In
atom 6.1787499999999991 6.1787499999999991 11.1217499999999987 N
atom 7.4144999999999994 7.4144999999999994 9.8859999999999992 In
atom 8.6502499999999998 8.6502499999999998 11.1217499999999987 N
atom 9.8859999999999992 9.8859999999999992 9.8859999999999992 In
atom 11.1217499999999987 11.1217499999999987 11.1217499999999987 N
