#=======================================================
#FHI-aims file: /home/ziletti/PycharmProjects/nomadml/tests/tmp_folder/C39GmzBY478BzuXrZM-0i2Z-njyb9_op_0_aims.in
#Created using the Atomic Simulation Environment (ASE)
#=======================================================
lattice_vector 0.0000000000000000 8.0924999999999994 8.0924999999999994 
lattice_vector 8.0924999999999994 0.0000000000000000 8.0924999999999994 
lattice_vector 8.0924999999999994 8.0924999999999994 0.0000000000000000 
atom 0.0000000000000000 0.0000000000000000 0.0000000000000000 Ga
atom 1.3487499999999999 1.3487499999999999 1.3487499999999999 P
atom 2.6974999999999998 2.6974999999999998 0.0000000000000000 Ga
atom 4.0462499999999997 4.0462499999999997 1.3487499999999999 P
atom 5.3949999999999996 5.3949999999999996 0.0000000000000000 Ga
atom 6.7437499999999995 6.7437499999999995 1.3487499999999999 P
atom 2.6974999999999998 0.0000000000000000 2.6974999999999998 Ga
atom 4.0462499999999997 1.3487499999999999 4.0462499999999997 P
atom 5.3949999999999996 2.6974999999999998 2.6974999999999998 Ga
atom 6.7437499999999995 4.0462499999999997 4.0462499999999997 P
atom 8.0924999999999994 5.3949999999999996 2.6974999999999998 Ga
atom 9.4412500000000001 6.7437499999999995 4.0462499999999997 P
atom 5.3949999999999996 0.0000000000000000 5.3949999999999996 Ga
atom 6.7437499999999995 1.3487499999999999 6.7437499999999995 P
atom 8.0924999999999994 2.6974999999999998 5.3949999999999996 Ga
atom 9.4412500000000001 4.0462499999999997 6.7437499999999995 P
atom 10.7899999999999991 5.3949999999999996 5.3949999999999996 Ga
atom 12.1387499999999982 6.7437499999999995 6.7437499999999995 P
atom 0.0000000000000000 2.6974999999999998 2.6974999999999998 Ga
atom 1.3487499999999999 4.0462499999999997 4.0462499999999997 P
atom 2.6974999999999998 5.3949999999999996 2.6974999999999998 Ga
atom 4.0462499999999997 6.7437499999999995 4.0462499999999997 P
atom 5.3949999999999996 8.0924999999999994 2.6974999999999998 Ga
atom 6.7437499999999995 9.4412500000000001 4.0462499999999997 P
atom 2.6974999999999998 2.6974999999999998 5.3949999999999996 Ga
atom 4.0462499999999997 4.0462499999999997 6.7437499999999995 P
atom 5.3949999999999996 5.3949999999999996 5.3949999999999996 Ga
atom 6.7437499999999995 6.7437499999999995 6.7437499999999995 P
atom 8.0924999999999994 8.0924999999999994 5.3949999999999996 Ga
atom 9.4412500000000001 9.4412500000000001 6.7437499999999995 P
atom 5.3949999999999996 2.6974999999999998 8.0924999999999994 Ga
atom 6.7437499999999995 4.0462499999999997 9.4412500000000001 P
atom 8.0924999999999994 5.3949999999999996 8.0924999999999994 Ga
atom 9.4412500000000001 6.7437499999999995 9.4412500000000001 P
atom 10.7899999999999991 8.0924999999999994 8.0924999999999994 Ga
atom 12.1387499999999982 9.4412500000000001 9.4412500000000001 P
atom 0.0000000000000000 5.3949999999999996 5.3949999999999996 Ga
atom 1.3487499999999999 6.7437499999999995 6.7437499999999995 P
atom 2.6974999999999998 8.0924999999999994 5.3949999999999996 Ga
atom 4.0462499999999997 9.4412500000000001 6.7437499999999995 P
atom 5.3949999999999996 10.7899999999999991 5.3949999999999996 Ga
atom 6.7437499999999995 12.1387499999999982 6.7437499999999995 P
atom 2.6974999999999998 5.3949999999999996 8.0924999999999994 Ga
atom 4.0462499999999997 6.7437499999999995 9.4412500000000001 P
atom 5.3949999999999996 8.0924999999999994 8.0924999999999994 Ga
atom 6.7437499999999995 9.4412500000000001 9.4412500000000001 P
atom 8.0924999999999994 10.7899999999999991 8.0924999999999994 Ga
atom 9.4412500000000001 12.1387499999999982 9.4412500000000001 P
atom 5.3949999999999996 5.3949999999999996 10.7899999999999991 Ga
atom 6.7437499999999995 6.7437499999999995 12.1387499999999982 P
atom 8.0924999999999994 8.0924999999999994 10.7899999999999991 Ga
atom 9.4412500000000001 9.4412500000000001 12.1387499999999982 P
atom 10.7899999999999991 10.7899999999999991 10.7899999999999991 Ga
atom 12.1387499999999982 12.1387499999999982 12.1387499999999982 P
