#=======================================================
#FHI-aims file: /home/ziletti/PycharmProjects/nomadml/tests/tmp_folder/C3hSpXydSB6z3p79OEIOQK6llto1K_op_0_aims.in
#Created using the Atomic Simulation Environment (ASE)
#=======================================================
lattice_vector 0.0000000000000000 8.7959999999999994 8.7959999999999994 
lattice_vector 8.7959999999999994 0.0000000000000000 8.7959999999999994 
lattice_vector 8.7959999999999994 8.7959999999999994 0.0000000000000000 
atom 0.0000000000000000 0.0000000000000000 0.0000000000000000 Cu
atom 1.4660000000000000 1.4660000000000000 1.4660000000000000 I
atom 2.9319999999999999 2.9319999999999999 0.0000000000000000 Cu
atom 4.3979999999999997 4.3979999999999997 1.4660000000000000 I
atom 5.8639999999999999 5.8639999999999999 0.0000000000000000 Cu
atom 7.3300000000000001 7.3300000000000001 1.4660000000000000 I
atom 2.9319999999999999 0.0000000000000000 2.9319999999999999 Cu
atom 4.3979999999999997 1.4660000000000000 4.3979999999999997 I
atom 5.8639999999999999 2.9319999999999999 2.9319999999999999 Cu
atom 7.3300000000000001 4.3979999999999997 4.3979999999999997 I
atom 8.7959999999999994 5.8639999999999999 2.9319999999999999 Cu
atom 10.2619999999999987 7.3300000000000001 4.3979999999999997 I
atom 5.8639999999999999 0.0000000000000000 5.8639999999999999 Cu
atom 7.3300000000000001 1.4660000000000000 7.3300000000000001 I
atom 8.7959999999999994 2.9319999999999999 5.8639999999999999 Cu
atom 10.2619999999999987 4.3979999999999997 7.3300000000000001 I
atom 11.7279999999999998 5.8639999999999999 5.8639999999999999 Cu
atom 13.1939999999999991 7.3300000000000001 7.3300000000000001 I
atom 0.0000000000000000 2.9319999999999999 2.9319999999999999 Cu
atom 1.4660000000000000 4.3979999999999997 4.3979999999999997 I
atom 2.9319999999999999 5.8639999999999999 2.9319999999999999 Cu
atom 4.3979999999999997 7.3300000000000001 4.3979999999999997 I
atom 5.8639999999999999 8.7959999999999994 2.9319999999999999 Cu
atom 7.3300000000000001 10.2619999999999987 4.3979999999999997 I
atom 2.9319999999999999 2.9319999999999999 5.8639999999999999 Cu
atom 4.3979999999999997 4.3979999999999997 7.3300000000000001 I
atom 5.8639999999999999 5.8639999999999999 5.8639999999999999 Cu
atom 7.3300000000000001 7.3300000000000001 7.3300000000000001 I
atom 8.7959999999999994 8.7959999999999994 5.8639999999999999 Cu
atom 10.2619999999999987 10.2619999999999987 7.3300000000000001 I
atom 5.8639999999999999 2.9319999999999999 8.7959999999999994 Cu
atom 7.3300000000000001 4.3979999999999997 10.2619999999999987 I
atom 8.7959999999999994 5.8639999999999999 8.7959999999999994 Cu
atom 10.2619999999999987 7.3300000000000001 10.2619999999999987 I
atom 11.7279999999999998 8.7959999999999994 8.7959999999999994 Cu
atom 13.1939999999999991 10.2619999999999987 10.2619999999999987 I
atom 0.0000000000000000 5.8639999999999999 5.8639999999999999 Cu
atom 1.4660000000000000 7.3300000000000001 7.3300000000000001 I
atom 2.9319999999999999 8.7959999999999994 5.8639999999999999 Cu
atom 4.3979999999999997 10.2619999999999987 7.3300000000000001 I
atom 5.8639999999999999 11.7279999999999998 5.8639999999999999 Cu
atom 7.3300000000000001 13.1939999999999991 7.3300000000000001 I
atom 2.9319999999999999 5.8639999999999999 8.7959999999999994 Cu
atom 4.3979999999999997 7.3300000000000001 10.2619999999999987 I
atom 5.8639999999999999 8.7959999999999994 8.7959999999999994 Cu
atom 7.3300000000000001 10.2619999999999987 10.2619999999999987 I
atom 8.7959999999999994 11.7279999999999998 8.7959999999999994 Cu
atom 10.2619999999999987 13.1939999999999991 10.2619999999999987 I
atom 5.8639999999999999 5.8639999999999999 11.7279999999999998 Cu
atom 7.3300000000000001 7.3300000000000001 13.1939999999999991 I
atom 8.7959999999999994 8.7959999999999994 11.7279999999999998 Cu
atom 10.2619999999999987 10.2619999999999987 13.1939999999999991 I
atom 11.7279999999999998 11.7279999999999998 11.7279999999999998 Cu
atom 13.1939999999999991 13.1939999999999991 13.1939999999999991 I
