#=======================================================
#FHI-aims file: /home/ziletti/PycharmProjects/nomadml/tests/tmp_folder/C51AKUeSNYXrRBK_-uc8y1-bCfUNg_op_0_aims.in
#Created using the Atomic Simulation Environment (ASE)
#=======================================================
lattice_vector 0.0000000000000000 8.6789999999999985 8.6789999999999985 
lattice_vector 8.6789999999999985 0.0000000000000000 8.6789999999999985 
lattice_vector 8.6789999999999985 8.6789999999999985 0.0000000000000000 
atom 0.0000000000000000 0.0000000000000000 0.0000000000000000 Na
atom 2.8929999999999998 2.8929999999999998 2.8929999999999998 Br
atom 2.8929999999999998 2.8929999999999998 0.0000000000000000 Na
atom 5.7859999999999996 5.7859999999999996 2.8929999999999998 Br
atom 5.7859999999999996 5.7859999999999996 0.0000000000000000 Na
atom 8.6789999999999985 8.6789999999999985 2.8929999999999998 Br
atom 2.8929999999999998 0.0000000000000000 2.8929999999999998 Na
atom 5.7859999999999996 2.8929999999999998 5.7859999999999996 Br
atom 5.7859999999999996 2.8929999999999998 2.8929999999999998 Na
atom 8.6789999999999985 5.7859999999999996 5.7859999999999996 Br
atom 8.6789999999999985 5.7859999999999996 2.8929999999999998 Na
atom 11.5719999999999992 8.6789999999999985 5.7859999999999996 Br
atom 5.7859999999999996 0.0000000000000000 5.7859999999999996 Na
atom 8.6789999999999985 2.8929999999999998 8.6789999999999985 Br
atom 8.6789999999999985 2.8929999999999998 5.7859999999999996 Na
atom 11.5719999999999992 5.7859999999999996 8.6789999999999985 Br
atom 11.5719999999999992 5.7859999999999996 5.7859999999999996 Na
atom 14.4649999999999999 8.6789999999999985 8.6789999999999985 Br
atom 0.0000000000000000 2.8929999999999998 2.8929999999999998 Na
atom 2.8929999999999998 5.7859999999999996 5.7859999999999996 Br
atom 2.8929999999999998 5.7859999999999996 2.8929999999999998 Na
atom 5.7859999999999996 8.6789999999999985 5.7859999999999996 Br
atom 5.7859999999999996 8.6789999999999985 2.8929999999999998 Na
atom 8.6789999999999985 11.5719999999999992 5.7859999999999996 Br
atom 2.8929999999999998 2.8929999999999998 5.7859999999999996 Na
atom 5.7859999999999996 5.7859999999999996 8.6789999999999985 Br
atom 5.7859999999999996 5.7859999999999996 5.7859999999999996 Na
atom 8.6789999999999985 8.6789999999999985 8.6789999999999985 Br
atom 8.6789999999999985 8.6789999999999985 5.7859999999999996 Na
atom 11.5719999999999992 11.5719999999999992 8.6789999999999985 Br
atom 5.7859999999999996 2.8929999999999998 8.6789999999999985 Na
atom 8.6789999999999985 5.7859999999999996 11.5719999999999992 Br
atom 8.6789999999999985 5.7859999999999996 8.6789999999999985 Na
atom 11.5719999999999992 8.6789999999999985 11.5719999999999992 Br
atom 11.5719999999999992 8.6789999999999985 8.6789999999999985 Na
atom 14.4649999999999999 11.5719999999999992 11.5719999999999992 Br
atom 0.0000000000000000 5.7859999999999996 5.7859999999999996 Na
atom 2.8929999999999998 8.6789999999999985 8.6789999999999985 Br
atom 2.8929999999999998 8.6789999999999985 5.7859999999999996 Na
atom 5.7859999999999996 11.5719999999999992 8.6789999999999985 Br
atom 5.7859999999999996 11.5719999999999992 5.7859999999999996 Na
atom 8.6789999999999985 14.4649999999999999 8.6789999999999985 Br
atom 2.8929999999999998 5.7859999999999996 8.6789999999999985 Na
atom 5.7859999999999996 8.6789999999999985 11.5719999999999992 Br
atom 5.7859999999999996 8.6789999999999985 8.6789999999999985 Na
atom 8.6789999999999985 11.5719999999999992 11.5719999999999992 Br
atom 8.6789999999999985 11.5719999999999992 8.6789999999999985 Na
atom 11.5719999999999992 14.4649999999999999 11.5719999999999992 Br
atom 5.7859999999999996 5.7859999999999996 11.5719999999999992 Na
atom 8.6789999999999985 8.6789999999999985 14.4649999999999999 Br
atom 8.6789999999999985 8.6789999999999985 11.5719999999999992 Na
atom 11.5719999999999992 11.5719999999999992 14.4649999999999999 Br
atom 11.5719999999999992 11.5719999999999992 11.5719999999999992 Na
atom 14.4649999999999999 14.4649999999999999 14.4649999999999999 Br
