#=======================================================
#FHI-aims file: /home/ziletti/PycharmProjects/nomadml/tests/tmp_folder/C5q6OPnbkCI9OZnxRMmigkwjECTEe_op_0_aims.in
#Created using the Atomic Simulation Environment (ASE)
#=======================================================
lattice_vector 0.0000000000000000 7.0649999999999995 7.0649999999999995 
lattice_vector 7.0649999999999995 0.0000000000000000 7.0649999999999995 
lattice_vector 7.0649999999999995 7.0649999999999995 0.0000000000000000 
atom 0.0000000000000000 0.0000000000000000 0.0000000000000000 Ca
atom 2.3550000000000000 2.3550000000000000 2.3550000000000000 O
atom 2.3550000000000000 2.3550000000000000 0.0000000000000000 Ca
atom 4.7100000000000000 4.7100000000000000 2.3550000000000000 O
atom 4.7100000000000000 4.7100000000000000 0.0000000000000000 Ca
atom 7.0649999999999995 7.0649999999999995 2.3550000000000000 O
atom 2.3550000000000000 0.0000000000000000 2.3550000000000000 Ca
atom 4.7100000000000000 2.3550000000000000 4.7100000000000000 O
atom 4.7100000000000000 2.3550000000000000 2.3550000000000000 Ca
atom 7.0649999999999995 4.7100000000000000 4.7100000000000000 O
atom 7.0649999999999995 4.7100000000000000 2.3550000000000000 Ca
atom 9.4199999999999999 7.0649999999999995 4.7100000000000000 O
atom 4.7100000000000000 0.0000000000000000 4.7100000000000000 Ca
atom 7.0649999999999995 2.3550000000000000 7.0649999999999995 O
atom 7.0649999999999995 2.3550000000000000 4.7100000000000000 Ca
atom 9.4199999999999999 4.7100000000000000 7.0649999999999995 O
atom 9.4199999999999999 4.7100000000000000 4.7100000000000000 Ca
atom 11.7750000000000004 7.0649999999999995 7.0649999999999995 O
atom 0.0000000000000000 2.3550000000000000 2.3550000000000000 Ca
atom 2.3550000000000000 4.7100000000000000 4.7100000000000000 O
atom 2.3550000000000000 4.7100000000000000 2.3550000000000000 Ca
atom 4.7100000000000000 7.0649999999999995 4.7100000000000000 O
atom 4.7100000000000000 7.0649999999999995 2.3550000000000000 Ca
atom 7.0649999999999995 9.4199999999999999 4.7100000000000000 O
atom 2.3550000000000000 2.3550000000000000 4.7100000000000000 Ca
atom 4.7100000000000000 4.7100000000000000 7.0649999999999995 O
atom 4.7100000000000000 4.7100000000000000 4.7100000000000000 Ca
atom 7.0649999999999995 7.0649999999999995 7.0649999999999995 O
atom 7.0649999999999995 7.0649999999999995 4.7100000000000000 Ca
atom 9.4199999999999999 9.4199999999999999 7.0649999999999995 O
atom 4.7100000000000000 2.3550000000000000 7.0649999999999995 Ca
atom 7.0649999999999995 4.7100000000000000 9.4199999999999999 O
atom 7.0649999999999995 4.7100000000000000 7.0649999999999995 Ca
atom 9.4199999999999999 7.0649999999999995 9.4199999999999999 O
atom 9.4199999999999999 7.0649999999999995 7.0649999999999995 Ca
atom 11.7750000000000004 9.4199999999999999 9.4199999999999999 O
atom 0.0000000000000000 4.7100000000000000 4.7100000000000000 Ca
atom 2.3550000000000000 7.0649999999999995 7.0649999999999995 O
atom 2.3550000000000000 7.0649999999999995 4.7100000000000000 Ca
atom 4.7100000000000000 9.4199999999999999 7.0649999999999995 O
atom 4.7100000000000000 9.4199999999999999 4.7100000000000000 Ca
atom 7.0649999999999995 11.7750000000000004 7.0649999999999995 O
atom 2.3550000000000000 4.7100000000000000 7.0649999999999995 Ca
atom 4.7100000000000000 7.0649999999999995 9.4199999999999999 O
atom 4.7100000000000000 7.0649999999999995 7.0649999999999995 Ca
atom 7.0649999999999995 9.4199999999999999 9.4199999999999999 O
atom 7.0649999999999995 9.4199999999999999 7.0649999999999995 Ca
atom 9.4199999999999999 11.7750000000000004 9.4199999999999999 O
atom 4.7100000000000000 4.7100000000000000 9.4199999999999999 Ca
atom 7.0649999999999995 7.0649999999999995 11.7750000000000004 O
atom 7.0649999999999995 7.0649999999999995 9.4199999999999999 Ca
atom 9.4199999999999999 9.4199999999999999 11.7750000000000004 O
atom 9.4199999999999999 9.4199999999999999 9.4199999999999999 Ca
atom 11.7750000000000004 11.7750000000000004 11.7750000000000004 O
