#=======================================================
#FHI-aims file: /home/ziletti/PycharmProjects/nomadml/tests/tmp_folder/C7JW4GQVa_xQ4YKM88F9LFzyVoXke_op_0_aims.in
#Created using the Atomic Simulation Environment (ASE)
#=======================================================
lattice_vector 0.0000000000000000 7.1865000000000006 7.1865000000000006 
lattice_vector 7.1865000000000006 0.0000000000000000 7.1865000000000006 
lattice_vector 7.1865000000000006 7.1865000000000006 0.0000000000000000 
atom 0.0000000000000000 0.0000000000000000 0.0000000000000000 Ag
atom 2.3955000000000002 2.3955000000000002 2.3955000000000002 F
atom 2.3955000000000002 2.3955000000000002 0.0000000000000000 Ag
atom 4.7910000000000004 4.7910000000000004 2.3955000000000002 F
atom 4.7910000000000004 4.7910000000000004 0.0000000000000000 Ag
atom 7.1865000000000006 7.1865000000000006 2.3955000000000002 F
atom 2.3955000000000002 0.0000000000000000 2.3955000000000002 Ag
atom 4.7910000000000004 2.3955000000000002 4.7910000000000004 F
atom 4.7910000000000004 2.3955000000000002 2.3955000000000002 Ag
atom 7.1865000000000006 4.7910000000000004 4.7910000000000004 F
atom 7.1865000000000006 4.7910000000000004 2.3955000000000002 Ag
atom 9.5820000000000007 7.1865000000000006 4.7910000000000004 F
atom 4.7910000000000004 0.0000000000000000 4.7910000000000004 Ag
atom 7.1865000000000006 2.3955000000000002 7.1865000000000006 F
atom 7.1865000000000006 2.3955000000000002 4.7910000000000004 Ag
atom 9.5820000000000007 4.7910000000000004 7.1865000000000006 F
atom 9.5820000000000007 4.7910000000000004 4.7910000000000004 Ag
atom 11.9775000000000009 7.1865000000000006 7.1865000000000006 F
atom 0.0000000000000000 2.3955000000000002 2.3955000000000002 Ag
atom 2.3955000000000002 4.7910000000000004 4.7910000000000004 F
atom 2.3955000000000002 4.7910000000000004 2.3955000000000002 Ag
atom 4.7910000000000004 7.1865000000000006 4.7910000000000004 F
atom 4.7910000000000004 7.1865000000000006 2.3955000000000002 Ag
atom 7.1865000000000006 9.5820000000000007 4.7910000000000004 F
atom 2.3955000000000002 2.3955000000000002 4.7910000000000004 Ag
atom 4.7910000000000004 4.7910000000000004 7.1865000000000006 F
atom 4.7910000000000004 4.7910000000000004 4.7910000000000004 Ag
atom 7.1865000000000006 7.1865000000000006 7.1865000000000006 F
atom 7.1865000000000006 7.1865000000000006 4.7910000000000004 Ag
atom 9.5820000000000007 9.5820000000000007 7.1865000000000006 F
atom 4.7910000000000004 2.3955000000000002 7.1865000000000006 Ag
atom 7.1865000000000006 4.7910000000000004 9.5820000000000007 F
atom 7.1865000000000006 4.7910000000000004 7.1865000000000006 Ag
atom 9.5820000000000007 7.1865000000000006 9.5820000000000007 F
atom 9.5820000000000007 7.1865000000000006 7.1865000000000006 Ag
atom 11.9775000000000009 9.5820000000000007 9.5820000000000007 F
atom 0.0000000000000000 4.7910000000000004 4.7910000000000004 Ag
atom 2.3955000000000002 7.1865000000000006 7.1865000000000006 F
atom 2.3955000000000002 7.1865000000000006 4.7910000000000004 Ag
atom 4.7910000000000004 9.5820000000000007 7.1865000000000006 F
atom 4.7910000000000004 9.5820000000000007 4.7910000000000004 Ag
atom 7.1865000000000006 11.9775000000000009 7.1865000000000006 F
atom 2.3955000000000002 4.7910000000000004 7.1865000000000006 Ag
atom 4.7910000000000004 7.1865000000000006 9.5820000000000007 F
atom 4.7910000000000004 7.1865000000000006 7.1865000000000006 Ag
atom 7.1865000000000006 9.5820000000000007 9.5820000000000007 F
atom 7.1865000000000006 9.5820000000000007 7.1865000000000006 Ag
atom 9.5820000000000007 11.9775000000000009 9.5820000000000007 F
atom 4.7910000000000004 4.7910000000000004 9.5820000000000007 Ag
atom 7.1865000000000006 7.1865000000000006 11.9775000000000009 F
atom 7.1865000000000006 7.1865000000000006 9.5820000000000007 Ag
atom 9.5820000000000007 9.5820000000000007 11.9775000000000009 F
atom 9.5820000000000007 9.5820000000000007 9.5820000000000007 Ag
atom 11.9775000000000009 11.9775000000000009 11.9775000000000009 F
