#=======================================================
#FHI-aims file: /home/ziletti/PycharmProjects/nomadml/tests/tmp_folder/C7kHL_6prXXdx5_MzMVmwsmStNoc0_op_0_aims.in
#Created using the Atomic Simulation Environment (ASE)
#=======================================================
lattice_vector 0.0000000000000000 5.8665000000000003 5.8665000000000003 
lattice_vector 5.8665000000000003 0.0000000000000000 5.8665000000000003 
lattice_vector 5.8665000000000003 5.8665000000000003 0.0000000000000000 
atom 0.0000000000000000 0.0000000000000000 0.0000000000000000 Li
atom 1.9555000000000000 1.9555000000000000 1.9555000000000000 F
atom 1.9555000000000000 1.9555000000000000 0.0000000000000000 Li
atom 3.9110000000000000 3.9110000000000000 1.9555000000000000 F
atom 3.9110000000000000 3.9110000000000000 0.0000000000000000 Li
atom 5.8665000000000003 5.8665000000000003 1.9555000000000000 F
atom 1.9555000000000000 0.0000000000000000 1.9555000000000000 Li
atom 3.9110000000000000 1.9555000000000000 3.9110000000000000 F
atom 3.9110000000000000 1.9555000000000000 1.9555000000000000 Li
atom 5.8665000000000003 3.9110000000000000 3.9110000000000000 F
atom 5.8665000000000003 3.9110000000000000 1.9555000000000000 Li
atom 7.8220000000000001 5.8665000000000003 3.9110000000000000 F
atom 3.9110000000000000 0.0000000000000000 3.9110000000000000 Li
atom 5.8665000000000003 1.9555000000000000 5.8665000000000003 F
atom 5.8665000000000003 1.9555000000000000 3.9110000000000000 Li
atom 7.8220000000000001 3.9110000000000000 5.8665000000000003 F
atom 7.8220000000000001 3.9110000000000000 3.9110000000000000 Li
atom 9.7774999999999999 5.8665000000000003 5.8665000000000003 F
atom 0.0000000000000000 1.9555000000000000 1.9555000000000000 Li
atom 1.9555000000000000 3.9110000000000000 3.9110000000000000 F
atom 1.9555000000000000 3.9110000000000000 1.9555000000000000 Li
atom 3.9110000000000000 5.8665000000000003 3.9110000000000000 F
atom 3.9110000000000000 5.8665000000000003 1.9555000000000000 Li
atom 5.8665000000000003 7.8220000000000001 3.9110000000000000 F
atom 1.9555000000000000 1.9555000000000000 3.9110000000000000 Li
atom 3.9110000000000000 3.9110000000000000 5.8665000000000003 F
atom 3.9110000000000000 3.9110000000000000 3.9110000000000000 Li
atom 5.8665000000000003 5.8665000000000003 5.8665000000000003 F
atom 5.8665000000000003 5.8665000000000003 3.9110000000000000 Li
atom 7.8220000000000001 7.8220000000000001 5.8665000000000003 F
atom 3.9110000000000000 1.9555000000000000 5.8665000000000003 Li
atom 5.8665000000000003 3.9110000000000000 7.8220000000000001 F
atom 5.8665000000000003 3.9110000000000000 5.8665000000000003 Li
atom 7.8220000000000001 5.8665000000000003 7.8220000000000001 F
atom 7.8220000000000001 5.8665000000000003 5.8665000000000003 Li
atom 9.7774999999999999 7.8220000000000001 7.8220000000000001 F
atom 0.0000000000000000 3.9110000000000000 3.9110000000000000 Li
atom 1.9555000000000000 5.8665000000000003 5.8665000000000003 F
atom 1.9555000000000000 5.8665000000000003 3.9110000000000000 Li
atom 3.9110000000000000 7.8220000000000001 5.8665000000000003 F
atom 3.9110000000000000 7.8220000000000001 3.9110000000000000 Li
atom 5.8665000000000003 9.7774999999999999 5.8665000000000003 F
atom 1.9555000000000000 3.9110000000000000 5.8665000000000003 Li
atom 3.9110000000000000 5.8665000000000003 7.8220000000000001 F
atom 3.9110000000000000 5.8665000000000003 5.8665000000000003 Li
atom 5.8665000000000003 7.8220000000000001 7.8220000000000001 F
atom 5.8665000000000003 7.8220000000000001 5.8665000000000003 Li
atom 7.8220000000000001 9.7774999999999999 7.8220000000000001 F
atom 3.9110000000000000 3.9110000000000000 7.8220000000000001 Li
atom 5.8665000000000003 5.8665000000000003 9.7774999999999999 F
atom 5.8665000000000003 5.8665000000000003 7.8220000000000001 Li
atom 7.8220000000000001 7.8220000000000001 9.7774999999999999 F
atom 7.8220000000000001 7.8220000000000001 7.8220000000000001 Li
atom 9.7774999999999999 9.7774999999999999 9.7774999999999999 F
