#=======================================================
#FHI-aims file: /home/ziletti/PycharmProjects/nomadml/tests/tmp_folder/C81vIYtJtOEx4n865B86z-KvUb6hA_op_0_aims.in
#Created using the Atomic Simulation Environment (ASE)
#=======================================================
lattice_vector 0.0000000000000000 8.4390000000000018 8.4390000000000018 
lattice_vector 8.4390000000000018 0.0000000000000000 8.4390000000000018 
lattice_vector 8.4390000000000018 8.4390000000000018 0.0000000000000000 
atom 0.0000000000000000 0.0000000000000000 0.0000000000000000 Ge
atom 1.4065000000000003 1.4065000000000003 1.4065000000000003 Ge
atom 2.8130000000000006 2.8130000000000006 0.0000000000000000 Ge
atom 4.2195000000000009 4.2195000000000009 1.4065000000000003 Ge
atom 5.6260000000000012 5.6260000000000012 0.0000000000000000 Ge
atom 7.0325000000000015 7.0325000000000015 1.4065000000000003 Ge
atom 2.8130000000000006 0.0000000000000000 2.8130000000000006 Ge
atom 4.2195000000000009 1.4065000000000003 4.2195000000000009 Ge
atom 5.6260000000000012 2.8130000000000006 2.8130000000000006 Ge
atom 7.0325000000000015 4.2195000000000009 4.2195000000000009 Ge
atom 8.4390000000000018 5.6260000000000012 2.8130000000000006 Ge
atom 9.8455000000000013 7.0325000000000015 4.2195000000000009 Ge
atom 5.6260000000000012 0.0000000000000000 5.6260000000000012 Ge
atom 7.0325000000000015 1.4065000000000003 7.0325000000000015 Ge
atom 8.4390000000000018 2.8130000000000006 5.6260000000000012 Ge
atom 9.8455000000000013 4.2195000000000009 7.0325000000000015 Ge
atom 11.2520000000000024 5.6260000000000012 5.6260000000000012 Ge
atom 12.6585000000000036 7.0325000000000015 7.0325000000000015 Ge
atom 0.0000000000000000 2.8130000000000006 2.8130000000000006 Ge
atom 1.4065000000000003 4.2195000000000009 4.2195000000000009 Ge
atom 2.8130000000000006 5.6260000000000012 2.8130000000000006 Ge
atom 4.2195000000000009 7.0325000000000015 4.2195000000000009 Ge
atom 5.6260000000000012 8.4390000000000018 2.8130000000000006 Ge
atom 7.0325000000000015 9.8455000000000013 4.2195000000000009 Ge
atom 2.8130000000000006 2.8130000000000006 5.6260000000000012 Ge
atom 4.2195000000000009 4.2195000000000009 7.0325000000000015 Ge
atom 5.6260000000000012 5.6260000000000012 5.6260000000000012 Ge
atom 7.0325000000000015 7.0325000000000015 7.0325000000000015 Ge
atom 8.4390000000000018 8.4390000000000018 5.6260000000000012 Ge
atom 9.8455000000000013 9.8455000000000013 7.0325000000000015 Ge
atom 5.6260000000000012 2.8130000000000006 8.4390000000000018 Ge
atom 7.0325000000000015 4.2195000000000009 9.8455000000000013 Ge
atom 8.4390000000000018 5.6260000000000012 8.4390000000000018 Ge
atom 9.8455000000000013 7.0325000000000015 9.8455000000000013 Ge
atom 11.2520000000000024 8.4390000000000018 8.4390000000000018 Ge
atom 12.6585000000000036 9.8455000000000013 9.8455000000000013 Ge
atom 0.0000000000000000 5.6260000000000012 5.6260000000000012 Ge
atom 1.4065000000000003 7.0325000000000015 7.0325000000000015 Ge
atom 2.8130000000000006 8.4390000000000018 5.6260000000000012 Ge
atom 4.2195000000000009 9.8455000000000013 7.0325000000000015 Ge
atom 5.6260000000000012 11.2520000000000024 5.6260000000000012 Ge
atom 7.0325000000000015 12.6585000000000036 7.0325000000000015 Ge
atom 2.8130000000000006 5.6260000000000012 8.4390000000000018 Ge
atom 4.2195000000000009 7.0325000000000015 9.8455000000000013 Ge
atom 5.6260000000000012 8.4390000000000018 8.4390000000000018 Ge
atom 7.0325000000000015 9.8455000000000013 9.8455000000000013 Ge
atom 8.4390000000000018 11.2520000000000024 8.4390000000000018 Ge
atom 9.8455000000000013 12.6585000000000036 9.8455000000000013 Ge
atom 5.6260000000000012 5.6260000000000012 11.2520000000000024 Ge
atom 7.0325000000000015 7.0325000000000015 12.6585000000000036 Ge
atom 8.4390000000000018 8.4390000000000018 11.2520000000000024 Ge
atom 9.8455000000000013 9.8455000000000013 12.6585000000000036 Ge
atom 11.2520000000000024 11.2520000000000024 11.2520000000000024 Ge
atom 12.6585000000000036 12.6585000000000036 12.6585000000000036 Ge
