#=======================================================
#FHI-aims file: /home/ziletti/PycharmProjects/nomadml/tests/tmp_folder/C9sheCSX6Gol5L-IsCvDlnmT_MEGG_op_0_aims.in
#Created using the Atomic Simulation Environment (ASE)
#=======================================================
lattice_vector 0.0000000000000000 8.3774999999999995 8.3774999999999995 
lattice_vector 8.3774999999999995 0.0000000000000000 8.3774999999999995 
lattice_vector 8.3774999999999995 8.3774999999999995 0.0000000000000000 
atom 0.0000000000000000 0.0000000000000000 0.0000000000000000 Ag
atom 2.7925000000000000 2.7925000000000000 2.7925000000000000 Br
atom 2.7925000000000000 2.7925000000000000 0.0000000000000000 Ag
atom 5.5850000000000000 5.5850000000000000 2.7925000000000000 Br
atom 5.5850000000000000 5.5850000000000000 0.0000000000000000 Ag
atom 8.3774999999999995 8.3774999999999995 2.7925000000000000 Br
atom 2.7925000000000000 0.0000000000000000 2.7925000000000000 Ag
atom 5.5850000000000000 2.7925000000000000 5.5850000000000000 Br
atom 5.5850000000000000 2.7925000000000000 2.7925000000000000 Ag
atom 8.3774999999999995 5.5850000000000000 5.5850000000000000 Br
atom 8.3774999999999995 5.5850000000000000 2.7925000000000000 Ag
atom 11.1699999999999999 8.3774999999999995 5.5850000000000000 Br
atom 5.5850000000000000 0.0000000000000000 5.5850000000000000 Ag
atom 8.3774999999999995 2.7925000000000000 8.3774999999999995 Br
atom 8.3774999999999995 2.7925000000000000 5.5850000000000000 Ag
atom 11.1699999999999999 5.5850000000000000 8.3774999999999995 Br
atom 11.1699999999999999 5.5850000000000000 5.5850000000000000 Ag
atom 13.9625000000000004 8.3774999999999995 8.3774999999999995 Br
atom 0.0000000000000000 2.7925000000000000 2.7925000000000000 Ag
atom 2.7925000000000000 5.5850000000000000 5.5850000000000000 Br
atom 2.7925000000000000 5.5850000000000000 2.7925000000000000 Ag
atom 5.5850000000000000 8.3774999999999995 5.5850000000000000 Br
atom 5.5850000000000000 8.3774999999999995 2.7925000000000000 Ag
atom 8.3774999999999995 11.1699999999999999 5.5850000000000000 Br
atom 2.7925000000000000 2.7925000000000000 5.5850000000000000 Ag
atom 5.5850000000000000 5.5850000000000000 8.3774999999999995 Br
atom 5.5850000000000000 5.5850000000000000 5.5850000000000000 Ag
atom 8.3774999999999995 8.3774999999999995 8.3774999999999995 Br
atom 8.3774999999999995 8.3774999999999995 5.5850000000000000 Ag
atom 11.1699999999999999 11.1699999999999999 8.3774999999999995 Br
atom 5.5850000000000000 2.7925000000000000 8.3774999999999995 Ag
atom 8.3774999999999995 5.5850000000000000 11.1699999999999999 Br
atom 8.3774999999999995 5.5850000000000000 8.3774999999999995 Ag
atom 11.1699999999999999 8.3774999999999995 11.1699999999999999 Br
atom 11.1699999999999999 8.3774999999999995 8.3774999999999995 Ag
atom 13.9625000000000004 11.1699999999999999 11.1699999999999999 Br
atom 0.0000000000000000 5.5850000000000000 5.5850000000000000 Ag
atom 2.7925000000000000 8.3774999999999995 8.3774999999999995 Br
atom 2.7925000000000000 8.3774999999999995 5.5850000000000000 Ag
atom 5.5850000000000000 11.1699999999999999 8.3774999999999995 Br
atom 5.5850000000000000 11.1699999999999999 5.5850000000000000 Ag
atom 8.3774999999999995 13.9625000000000004 8.3774999999999995 Br
atom 2.7925000000000000 5.5850000000000000 8.3774999999999995 Ag
atom 5.5850000000000000 8.3774999999999995 11.1699999999999999 Br
atom 5.5850000000000000 8.3774999999999995 8.3774999999999995 Ag
atom 8.3774999999999995 11.1699999999999999 11.1699999999999999 Br
atom 8.3774999999999995 11.1699999999999999 8.3774999999999995 Ag
atom 11.1699999999999999 13.9625000000000004 11.1699999999999999 Br
atom 5.5850000000000000 5.5850000000000000 11.1699999999999999 Ag
atom 8.3774999999999995 8.3774999999999995 13.9625000000000004 Br
atom 8.3774999999999995 8.3774999999999995 11.1699999999999999 Ag
atom 11.1699999999999999 11.1699999999999999 13.9625000000000004 Br
atom 11.1699999999999999 11.1699999999999999 11.1699999999999999 Ag
atom 13.9625000000000004 13.9625000000000004 13.9625000000000004 Br
