#=======================================================
#FHI-aims file: /home/ziletti/PycharmProjects/nomadml/tests/tmp_folder/C9Yuhn2S6hqpJ0cf9E9uw5G5bJlzV_op_0_aims.in
#Created using the Atomic Simulation Environment (ASE)
#=======================================================
lattice_vector 0.0000000000000000 6.7559999999999993 6.7559999999999993 
lattice_vector 6.7559999999999993 0.0000000000000000 6.7559999999999993 
lattice_vector 6.7559999999999993 6.7559999999999993 0.0000000000000000 
atom 0.0000000000000000 0.0000000000000000 0.0000000000000000 Na
atom 2.2519999999999998 2.2519999999999998 2.2519999999999998 F
atom 2.2519999999999998 2.2519999999999998 0.0000000000000000 Na
atom 4.5039999999999996 4.5039999999999996 2.2519999999999998 F
atom 4.5039999999999996 4.5039999999999996 0.0000000000000000 Na
atom 6.7559999999999993 6.7559999999999993 2.2519999999999998 F
atom 2.2519999999999998 0.0000000000000000 2.2519999999999998 Na
atom 4.5039999999999996 2.2519999999999998 4.5039999999999996 F
atom 4.5039999999999996 2.2519999999999998 2.2519999999999998 Na
atom 6.7559999999999993 4.5039999999999996 4.5039999999999996 F
atom 6.7559999999999993 4.5039999999999996 2.2519999999999998 Na
atom 9.0079999999999991 6.7559999999999993 4.5039999999999996 F
atom 4.5039999999999996 0.0000000000000000 4.5039999999999996 Na
atom 6.7559999999999993 2.2519999999999998 6.7559999999999993 F
atom 6.7559999999999993 2.2519999999999998 4.5039999999999996 Na
atom 9.0079999999999991 4.5039999999999996 6.7559999999999993 F
atom 9.0079999999999991 4.5039999999999996 4.5039999999999996 Na
atom 11.2599999999999980 6.7559999999999993 6.7559999999999993 F
atom 0.0000000000000000 2.2519999999999998 2.2519999999999998 Na
atom 2.2519999999999998 4.5039999999999996 4.5039999999999996 F
atom 2.2519999999999998 4.5039999999999996 2.2519999999999998 Na
atom 4.5039999999999996 6.7559999999999993 4.5039999999999996 F
atom 4.5039999999999996 6.7559999999999993 2.2519999999999998 Na
atom 6.7559999999999993 9.0079999999999991 4.5039999999999996 F
atom 2.2519999999999998 2.2519999999999998 4.5039999999999996 Na
atom 4.5039999999999996 4.5039999999999996 6.7559999999999993 F
atom 4.5039999999999996 4.5039999999999996 4.5039999999999996 Na
atom 6.7559999999999993 6.7559999999999993 6.7559999999999993 F
atom 6.7559999999999993 6.7559999999999993 4.5039999999999996 Na
atom 9.0079999999999991 9.0079999999999991 6.7559999999999993 F
atom 4.5039999999999996 2.2519999999999998 6.7559999999999993 Na
atom 6.7559999999999993 4.5039999999999996 9.0079999999999991 F
atom 6.7559999999999993 4.5039999999999996 6.7559999999999993 Na
atom 9.0079999999999991 6.7559999999999993 9.0079999999999991 F
atom 9.0079999999999991 6.7559999999999993 6.7559999999999993 Na
atom 11.2599999999999980 9.0079999999999991 9.0079999999999991 F
atom 0.0000000000000000 4.5039999999999996 4.5039999999999996 Na
atom 2.2519999999999998 6.7559999999999993 6.7559999999999993 F
atom 2.2519999999999998 6.7559999999999993 4.5039999999999996 Na
atom 4.5039999999999996 9.0079999999999991 6.7559999999999993 F
atom 4.5039999999999996 9.0079999999999991 4.5039999999999996 Na
atom 6.7559999999999993 11.2599999999999980 6.7559999999999993 F
atom 2.2519999999999998 4.5039999999999996 6.7559999999999993 Na
atom 4.5039999999999996 6.7559999999999993 9.0079999999999991 F
atom 4.5039999999999996 6.7559999999999993 6.7559999999999993 Na
atom 6.7559999999999993 9.0079999999999991 9.0079999999999991 F
atom 6.7559999999999993 9.0079999999999991 6.7559999999999993 Na
atom 9.0079999999999991 11.2599999999999980 9.0079999999999991 F
atom 4.5039999999999996 4.5039999999999996 9.0079999999999991 Na
atom 6.7559999999999993 6.7559999999999993 11.2599999999999980 F
atom 6.7559999999999993 6.7559999999999993 9.0079999999999991 Na
atom 9.0079999999999991 9.0079999999999991 11.2599999999999980 F
atom 9.0079999999999991 9.0079999999999991 9.0079999999999991 Na
atom 11.2599999999999980 11.2599999999999980 11.2599999999999980 F
