#=======================================================
#FHI-aims file: /home/ziletti/PycharmProjects/nomadml/tests/tmp_folder/C_1mfRE8eDZ7zCLQwGT_3n8YC34dE_op_0_aims.in
#Created using the Atomic Simulation Environment (ASE)
#=======================================================
lattice_vector 0.0000000000000000 8.1539999999999999 8.1539999999999999 
lattice_vector 8.1539999999999999 0.0000000000000000 8.1539999999999999 
lattice_vector 8.1539999999999999 8.1539999999999999 0.0000000000000000 
atom 0.0000000000000000 0.0000000000000000 0.0000000000000000 Al
atom 1.3590000000000000 1.3590000000000000 1.3590000000000000 P
atom 2.7180000000000000 2.7180000000000000 0.0000000000000000 Al
atom 4.0770000000000000 4.0770000000000000 1.3590000000000000 P
atom 5.4359999999999999 5.4359999999999999 0.0000000000000000 Al
atom 6.7949999999999999 6.7949999999999999 1.3590000000000000 P
atom 2.7180000000000000 0.0000000000000000 2.7180000000000000 Al
atom 4.0770000000000000 1.3590000000000000 4.0770000000000000 P
atom 5.4359999999999999 2.7180000000000000 2.7180000000000000 Al
atom 6.7949999999999999 4.0770000000000000 4.0770000000000000 P
atom 8.1539999999999999 5.4359999999999999 2.7180000000000000 Al
atom 9.5129999999999999 6.7949999999999999 4.0770000000000000 P
atom 5.4359999999999999 0.0000000000000000 5.4359999999999999 Al
atom 6.7949999999999999 1.3590000000000000 6.7949999999999999 P
atom 8.1539999999999999 2.7180000000000000 5.4359999999999999 Al
atom 9.5129999999999999 4.0770000000000000 6.7949999999999999 P
atom 10.8719999999999999 5.4359999999999999 5.4359999999999999 Al
atom 12.2309999999999999 6.7949999999999999 6.7949999999999999 P
atom 0.0000000000000000 2.7180000000000000 2.7180000000000000 Al
atom 1.3590000000000000 4.0770000000000000 4.0770000000000000 P
atom 2.7180000000000000 5.4359999999999999 2.7180000000000000 Al
atom 4.0770000000000000 6.7949999999999999 4.0770000000000000 P
atom 5.4359999999999999 8.1539999999999999 2.7180000000000000 Al
atom 6.7949999999999999 9.5129999999999999 4.0770000000000000 P
atom 2.7180000000000000 2.7180000000000000 5.4359999999999999 Al
atom 4.0770000000000000 4.0770000000000000 6.7949999999999999 P
atom 5.4359999999999999 5.4359999999999999 5.4359999999999999 Al
atom 6.7949999999999999 6.7949999999999999 6.7949999999999999 P
atom 8.1539999999999999 8.1539999999999999 5.4359999999999999 Al
atom 9.5129999999999999 9.5129999999999999 6.7949999999999999 P
atom 5.4359999999999999 2.7180000000000000 8.1539999999999999 Al
atom 6.7949999999999999 4.0770000000000000 9.5129999999999999 P
atom 8.1539999999999999 5.4359999999999999 8.1539999999999999 Al
atom 9.5129999999999999 6.7949999999999999 9.5129999999999999 P
atom 10.8719999999999999 8.1539999999999999 8.1539999999999999 Al
atom 12.2309999999999999 9.5129999999999999 9.5129999999999999 P
atom 0.0000000000000000 5.4359999999999999 5.4359999999999999 Al
atom 1.3590000000000000 6.7949999999999999 6.7949999999999999 P
atom 2.7180000000000000 8.1539999999999999 5.4359999999999999 Al
atom 4.0770000000000000 9.5129999999999999 6.7949999999999999 P
atom 5.4359999999999999 10.8719999999999999 5.4359999999999999 Al
atom 6.7949999999999999 12.2309999999999999 6.7949999999999999 P
atom 2.7180000000000000 5.4359999999999999 8.1539999999999999 Al
atom 4.0770000000000000 6.7949999999999999 9.5129999999999999 P
atom 5.4359999999999999 8.1539999999999999 8.1539999999999999 Al
atom 6.7949999999999999 9.5129999999999999 9.5129999999999999 P
atom 8.1539999999999999 10.8719999999999999 8.1539999999999999 Al
atom 9.5129999999999999 12.2309999999999999 9.5129999999999999 P
atom 5.4359999999999999 5.4359999999999999 10.8719999999999999 Al
atom 6.7949999999999999 6.7949999999999999 12.2309999999999999 P
atom 8.1539999999999999 8.1539999999999999 10.8719999999999999 Al
atom 9.5129999999999999 9.5129999999999999 12.2309999999999999 P
atom 10.8719999999999999 10.8719999999999999 10.8719999999999999 Al
atom 12.2309999999999999 12.2309999999999999 12.2309999999999999 P
