#=======================================================
#FHI-aims file: /home/ziletti/PycharmProjects/nomadml/tests/tmp_folder/C_DFu-YobOdcOb1mfdI22vrtaSQAh_op_0_aims.in
#Created using the Atomic Simulation Environment (ASE)
#=======================================================
lattice_vector 0.0000000000000000 8.1960000000000015 8.1960000000000015 
lattice_vector 8.1960000000000015 0.0000000000000000 8.1960000000000015 
lattice_vector 8.1960000000000015 8.1960000000000015 0.0000000000000000 
atom 0.0000000000000000 0.0000000000000000 0.0000000000000000 Rb
atom 2.7320000000000007 2.7320000000000007 2.7320000000000007 F
atom 2.7320000000000007 2.7320000000000007 0.0000000000000000 Rb
atom 5.4640000000000013 5.4640000000000013 2.7320000000000007 F
atom 5.4640000000000013 5.4640000000000013 0.0000000000000000 Rb
atom 8.1960000000000015 8.1960000000000015 2.7320000000000007 F
atom 2.7320000000000007 0.0000000000000000 2.7320000000000007 Rb
atom 5.4640000000000013 2.7320000000000007 5.4640000000000013 F
atom 5.4640000000000013 2.7320000000000007 2.7320000000000007 Rb
atom 8.1960000000000015 5.4640000000000013 5.4640000000000013 F
atom 8.1960000000000015 5.4640000000000013 2.7320000000000007 Rb
atom 10.9280000000000026 8.1960000000000015 5.4640000000000013 F
atom 5.4640000000000013 0.0000000000000000 5.4640000000000013 Rb
atom 8.1960000000000015 2.7320000000000007 8.1960000000000015 F
atom 8.1960000000000015 2.7320000000000007 5.4640000000000013 Rb
atom 10.9280000000000026 5.4640000000000013 8.1960000000000015 F
atom 10.9280000000000026 5.4640000000000013 5.4640000000000013 Rb
atom 13.6600000000000037 8.1960000000000015 8.1960000000000015 F
atom 0.0000000000000000 2.7320000000000007 2.7320000000000007 Rb
atom 2.7320000000000007 5.4640000000000013 5.4640000000000013 F
atom 2.7320000000000007 5.4640000000000013 2.7320000000000007 Rb
atom 5.4640000000000013 8.1960000000000015 5.4640000000000013 F
atom 5.4640000000000013 8.1960000000000015 2.7320000000000007 Rb
atom 8.1960000000000015 10.9280000000000026 5.4640000000000013 F
atom 2.7320000000000007 2.7320000000000007 5.4640000000000013 Rb
atom 5.4640000000000013 5.4640000000000013 8.1960000000000015 F
atom 5.4640000000000013 5.4640000000000013 5.4640000000000013 Rb
atom 8.1960000000000015 8.1960000000000015 8.1960000000000015 F
atom 8.1960000000000015 8.1960000000000015 5.4640000000000013 Rb
atom 10.9280000000000026 10.9280000000000026 8.1960000000000015 F
atom 5.4640000000000013 2.7320000000000007 8.1960000000000015 Rb
atom 8.1960000000000015 5.4640000000000013 10.9280000000000026 F
atom 8.1960000000000015 5.4640000000000013 8.1960000000000015 Rb
atom 10.9280000000000026 8.1960000000000015 10.9280000000000026 F
atom 10.9280000000000026 8.1960000000000015 8.1960000000000015 Rb
atom 13.6600000000000037 10.9280000000000026 10.9280000000000026 F
atom 0.0000000000000000 5.4640000000000013 5.4640000000000013 Rb
atom 2.7320000000000007 8.1960000000000015 8.1960000000000015 F
atom 2.7320000000000007 8.1960000000000015 5.4640000000000013 Rb
atom 5.4640000000000013 10.9280000000000026 8.1960000000000015 F
atom 5.4640000000000013 10.9280000000000026 5.4640000000000013 Rb
atom 8.1960000000000015 13.6600000000000037 8.1960000000000015 F
atom 2.7320000000000007 5.4640000000000013 8.1960000000000015 Rb
atom 5.4640000000000013 8.1960000000000015 10.9280000000000026 F
atom 5.4640000000000013 8.1960000000000015 8.1960000000000015 Rb
atom 8.1960000000000015 10.9280000000000026 10.9280000000000026 F
atom 8.1960000000000015 10.9280000000000026 8.1960000000000015 Rb
atom 10.9280000000000026 13.6600000000000037 10.9280000000000026 F
atom 5.4640000000000013 5.4640000000000013 10.9280000000000026 Rb
atom 8.1960000000000015 8.1960000000000015 13.6600000000000037 F
atom 8.1960000000000015 8.1960000000000015 10.9280000000000026 Rb
atom 10.9280000000000026 10.9280000000000026 13.6600000000000037 F
atom 10.9280000000000026 10.9280000000000026 10.9280000000000026 Rb
atom 13.6600000000000037 13.6600000000000037 13.6600000000000037 F
