#=======================================================
#FHI-aims file: /home/ziletti/PycharmProjects/nomadml/tests/tmp_folder/C_rlThO8Jv0C2YIgYKLbCTM1rvfW-_op_0_aims.in
#Created using the Atomic Simulation Environment (ASE)
#=======================================================
lattice_vector 0.0000000000000000 9.5325000000000006 9.5325000000000006 
lattice_vector 9.5325000000000006 0.0000000000000000 9.5325000000000006 
lattice_vector 9.5325000000000006 9.5325000000000006 0.0000000000000000 
atom 0.0000000000000000 0.0000000000000000 0.0000000000000000 Ag
atom 1.5887500000000001 1.5887500000000001 1.5887500000000001 I
atom 3.1775000000000002 3.1775000000000002 0.0000000000000000 Ag
atom 4.7662500000000003 4.7662500000000003 1.5887500000000001 I
atom 6.3550000000000004 6.3550000000000004 0.0000000000000000 Ag
atom 7.9437500000000005 7.9437500000000005 1.5887500000000001 I
atom 3.1775000000000002 0.0000000000000000 3.1775000000000002 Ag
atom 4.7662500000000003 1.5887500000000001 4.7662500000000003 I
atom 6.3550000000000004 3.1775000000000002 3.1775000000000002 Ag
atom 7.9437500000000005 4.7662500000000003 4.7662500000000003 I
atom 9.5325000000000006 6.3550000000000004 3.1775000000000002 Ag
atom 11.1212499999999999 7.9437500000000005 4.7662500000000003 I
atom 6.3550000000000004 0.0000000000000000 6.3550000000000004 Ag
atom 7.9437500000000005 1.5887500000000001 7.9437500000000005 I
atom 9.5325000000000006 3.1775000000000002 6.3550000000000004 Ag
atom 11.1212499999999999 4.7662500000000003 7.9437500000000005 I
atom 12.7100000000000009 6.3550000000000004 6.3550000000000004 Ag
atom 14.2987500000000018 7.9437500000000005 7.9437500000000005 I
atom 0.0000000000000000 3.1775000000000002 3.1775000000000002 Ag
atom 1.5887500000000001 4.7662500000000003 4.7662500000000003 I
atom 3.1775000000000002 6.3550000000000004 3.1775000000000002 Ag
atom 4.7662500000000003 7.9437500000000005 4.7662500000000003 I
atom 6.3550000000000004 9.5325000000000006 3.1775000000000002 Ag
atom 7.9437500000000005 11.1212499999999999 4.7662500000000003 I
atom 3.1775000000000002 3.1775000000000002 6.3550000000000004 Ag
atom 4.7662500000000003 4.7662500000000003 7.9437500000000005 I
atom 6.3550000000000004 6.3550000000000004 6.3550000000000004 Ag
atom 7.9437500000000005 7.9437500000000005 7.9437500000000005 I
atom 9.5325000000000006 9.5325000000000006 6.3550000000000004 Ag
atom 11.1212499999999999 11.1212499999999999 7.9437500000000005 I
atom 6.3550000000000004 3.1775000000000002 9.5325000000000006 Ag
atom 7.9437500000000005 4.7662500000000003 11.1212499999999999 I
atom 9.5325000000000006 6.3550000000000004 9.5325000000000006 Ag
atom 11.1212499999999999 7.9437500000000005 11.1212499999999999 I
atom 12.7100000000000009 9.5325000000000006 9.5325000000000006 Ag
atom 14.2987500000000018 11.1212499999999999 11.1212499999999999 I
atom 0.0000000000000000 6.3550000000000004 6.3550000000000004 Ag
atom 1.5887500000000001 7.9437500000000005 7.9437500000000005 I
atom 3.1775000000000002 9.5325000000000006 6.3550000000000004 Ag
atom 4.7662500000000003 11.1212499999999999 7.9437500000000005 I
atom 6.3550000000000004 12.7100000000000009 6.3550000000000004 Ag
atom 7.9437500000000005 14.2987500000000018 7.9437500000000005 I
atom 3.1775000000000002 6.3550000000000004 9.5325000000000006 Ag
atom 4.7662500000000003 7.9437500000000005 11.1212499999999999 I
atom 6.3550000000000004 9.5325000000000006 9.5325000000000006 Ag
atom 7.9437500000000005 11.1212499999999999 11.1212499999999999 I
atom 9.5325000000000006 12.7100000000000009 9.5325000000000006 Ag
atom 11.1212499999999999 14.2987500000000018 11.1212499999999999 I
atom 6.3550000000000004 6.3550000000000004 12.7100000000000009 Ag
atom 7.9437500000000005 7.9437500000000005 14.2987500000000018 I
atom 9.5325000000000006 9.5325000000000006 12.7100000000000009 Ag
atom 11.1212499999999999 11.1212499999999999 14.2987500000000018 I
atom 12.7100000000000009 12.7100000000000009 12.7100000000000009 Ag
atom 14.2987500000000018 14.2987500000000018 14.2987500000000018 I
