#=======================================================
#FHI-aims file: /home/ziletti/PycharmProjects/nomadml/tests/tmp_folder/CA3s37bS9VLUzI5wYL_ntZ6RIM6IJ_op_0_aims.in
#Created using the Atomic Simulation Environment (ASE)
#=======================================================
lattice_vector 0.0000000000000000 9.0420000000000016 9.0420000000000016 
lattice_vector 9.0420000000000016 0.0000000000000000 9.0420000000000016 
lattice_vector 9.0420000000000016 9.0420000000000016 0.0000000000000000 
atom 0.0000000000000000 0.0000000000000000 0.0000000000000000 In
atom 1.5070000000000001 1.5070000000000001 1.5070000000000001 As
atom 3.0140000000000002 3.0140000000000002 0.0000000000000000 In
atom 4.5210000000000008 4.5210000000000008 1.5070000000000001 As
atom 6.0280000000000005 6.0280000000000005 0.0000000000000000 In
atom 7.5350000000000001 7.5350000000000001 1.5070000000000001 As
atom 3.0140000000000002 0.0000000000000000 3.0140000000000002 In
atom 4.5210000000000008 1.5070000000000001 4.5210000000000008 As
atom 6.0280000000000005 3.0140000000000002 3.0140000000000002 In
atom 7.5350000000000001 4.5210000000000008 4.5210000000000008 As
atom 9.0420000000000016 6.0280000000000005 3.0140000000000002 In
atom 10.5490000000000013 7.5350000000000001 4.5210000000000008 As
atom 6.0280000000000005 0.0000000000000000 6.0280000000000005 In
atom 7.5350000000000001 1.5070000000000001 7.5350000000000001 As
atom 9.0420000000000016 3.0140000000000002 6.0280000000000005 In
atom 10.5490000000000013 4.5210000000000008 7.5350000000000001 As
atom 12.0560000000000009 6.0280000000000005 6.0280000000000005 In
atom 13.5630000000000006 7.5350000000000001 7.5350000000000001 As
atom 0.0000000000000000 3.0140000000000002 3.0140000000000002 In
atom 1.5070000000000001 4.5210000000000008 4.5210000000000008 As
atom 3.0140000000000002 6.0280000000000005 3.0140000000000002 In
atom 4.5210000000000008 7.5350000000000001 4.5210000000000008 As
atom 6.0280000000000005 9.0420000000000016 3.0140000000000002 In
atom 7.5350000000000001 10.5490000000000013 4.5210000000000008 As
atom 3.0140000000000002 3.0140000000000002 6.0280000000000005 In
atom 4.5210000000000008 4.5210000000000008 7.5350000000000001 As
atom 6.0280000000000005 6.0280000000000005 6.0280000000000005 In
atom 7.5350000000000001 7.5350000000000001 7.5350000000000001 As
atom 9.0420000000000016 9.0420000000000016 6.0280000000000005 In
atom 10.5490000000000013 10.5490000000000013 7.5350000000000001 As
atom 6.0280000000000005 3.0140000000000002 9.0420000000000016 In
atom 7.5350000000000001 4.5210000000000008 10.5490000000000013 As
atom 9.0420000000000016 6.0280000000000005 9.0420000000000016 In
atom 10.5490000000000013 7.5350000000000001 10.5490000000000013 As
atom 12.0560000000000009 9.0420000000000016 9.0420000000000016 In
atom 13.5630000000000006 10.5490000000000013 10.5490000000000013 As
atom 0.0000000000000000 6.0280000000000005 6.0280000000000005 In
atom 1.5070000000000001 7.5350000000000001 7.5350000000000001 As
atom 3.0140000000000002 9.0420000000000016 6.0280000000000005 In
atom 4.5210000000000008 10.5490000000000013 7.5350000000000001 As
atom 6.0280000000000005 12.0560000000000009 6.0280000000000005 In
atom 7.5350000000000001 13.5630000000000006 7.5350000000000001 As
atom 3.0140000000000002 6.0280000000000005 9.0420000000000016 In
atom 4.5210000000000008 7.5350000000000001 10.5490000000000013 As
atom 6.0280000000000005 9.0420000000000016 9.0420000000000016 In
atom 7.5350000000000001 10.5490000000000013 10.5490000000000013 As
atom 9.0420000000000016 12.0560000000000009 9.0420000000000016 In
atom 10.5490000000000013 13.5630000000000006 10.5490000000000013 As
atom 6.0280000000000005 6.0280000000000005 12.0560000000000009 In
atom 7.5350000000000001 7.5350000000000001 13.5630000000000006 As
atom 9.0420000000000016 9.0420000000000016 12.0560000000000009 In
atom 10.5490000000000013 10.5490000000000013 13.5630000000000006 As
atom 12.0560000000000009 12.0560000000000009 12.0560000000000009 In
atom 13.5630000000000006 13.5630000000000006 13.5630000000000006 As
