#=======================================================
#FHI-aims file: /home/ziletti/PycharmProjects/nomadml/tests/tmp_folder/CAlWHa4oJtvotPEJZkbrlNC_sn0h2_op_0_aims.in
#Created using the Atomic Simulation Environment (ASE)
#=======================================================
lattice_vector 0.0000000000000000 7.5990000000000002 7.5990000000000002 
lattice_vector 7.5990000000000002 0.0000000000000000 7.5990000000000002 
lattice_vector 7.5990000000000002 7.5990000000000002 0.0000000000000000 
atom 0.0000000000000000 0.0000000000000000 0.0000000000000000 Sr
atom 2.5329999999999999 2.5329999999999999 2.5329999999999999 O
atom 2.5329999999999999 2.5329999999999999 0.0000000000000000 Sr
atom 5.0659999999999998 5.0659999999999998 2.5329999999999999 O
atom 5.0659999999999998 5.0659999999999998 0.0000000000000000 Sr
atom 7.5990000000000002 7.5990000000000002 2.5329999999999999 O
atom 2.5329999999999999 0.0000000000000000 2.5329999999999999 Sr
atom 5.0659999999999998 2.5329999999999999 5.0659999999999998 O
atom 5.0659999999999998 2.5329999999999999 2.5329999999999999 Sr
atom 7.5990000000000002 5.0659999999999998 5.0659999999999998 O
atom 7.5990000000000002 5.0659999999999998 2.5329999999999999 Sr
atom 10.1319999999999997 7.5990000000000002 5.0659999999999998 O
atom 5.0659999999999998 0.0000000000000000 5.0659999999999998 Sr
atom 7.5990000000000002 2.5329999999999999 7.5990000000000002 O
atom 7.5990000000000002 2.5329999999999999 5.0659999999999998 Sr
atom 10.1319999999999997 5.0659999999999998 7.5990000000000002 O
atom 10.1319999999999997 5.0659999999999998 5.0659999999999998 Sr
atom 12.6649999999999991 7.5990000000000002 7.5990000000000002 O
atom 0.0000000000000000 2.5329999999999999 2.5329999999999999 Sr
atom 2.5329999999999999 5.0659999999999998 5.0659999999999998 O
atom 2.5329999999999999 5.0659999999999998 2.5329999999999999 Sr
atom 5.0659999999999998 7.5990000000000002 5.0659999999999998 O
atom 5.0659999999999998 7.5990000000000002 2.5329999999999999 Sr
atom 7.5990000000000002 10.1319999999999997 5.0659999999999998 O
atom 2.5329999999999999 2.5329999999999999 5.0659999999999998 Sr
atom 5.0659999999999998 5.0659999999999998 7.5990000000000002 O
atom 5.0659999999999998 5.0659999999999998 5.0659999999999998 Sr
atom 7.5990000000000002 7.5990000000000002 7.5990000000000002 O
atom 7.5990000000000002 7.5990000000000002 5.0659999999999998 Sr
atom 10.1319999999999997 10.1319999999999997 7.5990000000000002 O
atom 5.0659999999999998 2.5329999999999999 7.5990000000000002 Sr
atom 7.5990000000000002 5.0659999999999998 10.1319999999999997 O
atom 7.5990000000000002 5.0659999999999998 7.5990000000000002 Sr
atom 10.1319999999999997 7.5990000000000002 10.1319999999999997 O
atom 10.1319999999999997 7.5990000000000002 7.5990000000000002 Sr
atom 12.6649999999999991 10.1319999999999997 10.1319999999999997 O
atom 0.0000000000000000 5.0659999999999998 5.0659999999999998 Sr
atom 2.5329999999999999 7.5990000000000002 7.5990000000000002 O
atom 2.5329999999999999 7.5990000000000002 5.0659999999999998 Sr
atom 5.0659999999999998 10.1319999999999997 7.5990000000000002 O
atom 5.0659999999999998 10.1319999999999997 5.0659999999999998 Sr
atom 7.5990000000000002 12.6649999999999991 7.5990000000000002 O
atom 2.5329999999999999 5.0659999999999998 7.5990000000000002 Sr
atom 5.0659999999999998 7.5990000000000002 10.1319999999999997 O
atom 5.0659999999999998 7.5990000000000002 7.5990000000000002 Sr
atom 7.5990000000000002 10.1319999999999997 10.1319999999999997 O
atom 7.5990000000000002 10.1319999999999997 7.5990000000000002 Sr
atom 10.1319999999999997 12.6649999999999991 10.1319999999999997 O
atom 5.0659999999999998 5.0659999999999998 10.1319999999999997 Sr
atom 7.5990000000000002 7.5990000000000002 12.6649999999999991 O
atom 7.5990000000000002 7.5990000000000002 10.1319999999999997 Sr
atom 10.1319999999999997 10.1319999999999997 12.6649999999999991 O
atom 10.1319999999999997 10.1319999999999997 10.1319999999999997 Sr
atom 12.6649999999999991 12.6649999999999991 12.6649999999999991 O
