#=======================================================
#FHI-aims file: /home/ziletti/PycharmProjects/nomadml/tests/tmp_folder/CB0yzgD_PWA0LKTKGJ8ZZuD33YEUG_op_0_aims.in
#Created using the Atomic Simulation Environment (ASE)
#=======================================================
lattice_vector 0.0000000000000000 9.3900000000000006 9.3900000000000006 
lattice_vector 9.3900000000000006 0.0000000000000000 9.3900000000000006 
lattice_vector 9.3900000000000006 9.3900000000000006 0.0000000000000000 
atom 0.0000000000000000 0.0000000000000000 0.0000000000000000 Na
atom 3.1299999999999999 3.1299999999999999 3.1299999999999999 I
atom 3.1299999999999999 3.1299999999999999 0.0000000000000000 Na
atom 6.2599999999999998 6.2599999999999998 3.1299999999999999 I
atom 6.2599999999999998 6.2599999999999998 0.0000000000000000 Na
atom 9.3900000000000006 9.3900000000000006 3.1299999999999999 I
atom 3.1299999999999999 0.0000000000000000 3.1299999999999999 Na
atom 6.2599999999999998 3.1299999999999999 6.2599999999999998 I
atom 6.2599999999999998 3.1299999999999999 3.1299999999999999 Na
atom 9.3900000000000006 6.2599999999999998 6.2599999999999998 I
atom 9.3900000000000006 6.2599999999999998 3.1299999999999999 Na
atom 12.5199999999999996 9.3900000000000006 6.2599999999999998 I
atom 6.2599999999999998 0.0000000000000000 6.2599999999999998 Na
atom 9.3900000000000006 3.1299999999999999 9.3900000000000006 I
atom 9.3900000000000006 3.1299999999999999 6.2599999999999998 Na
atom 12.5199999999999996 6.2599999999999998 9.3900000000000006 I
atom 12.5199999999999996 6.2599999999999998 6.2599999999999998 Na
atom 15.6499999999999986 9.3900000000000006 9.3900000000000006 I
atom 0.0000000000000000 3.1299999999999999 3.1299999999999999 Na
atom 3.1299999999999999 6.2599999999999998 6.2599999999999998 I
atom 3.1299999999999999 6.2599999999999998 3.1299999999999999 Na
atom 6.2599999999999998 9.3900000000000006 6.2599999999999998 I
atom 6.2599999999999998 9.3900000000000006 3.1299999999999999 Na
atom 9.3900000000000006 12.5199999999999996 6.2599999999999998 I
atom 3.1299999999999999 3.1299999999999999 6.2599999999999998 Na
atom 6.2599999999999998 6.2599999999999998 9.3900000000000006 I
atom 6.2599999999999998 6.2599999999999998 6.2599999999999998 Na
atom 9.3900000000000006 9.3900000000000006 9.3900000000000006 I
atom 9.3900000000000006 9.3900000000000006 6.2599999999999998 Na
atom 12.5199999999999996 12.5199999999999996 9.3900000000000006 I
atom 6.2599999999999998 3.1299999999999999 9.3900000000000006 Na
atom 9.3900000000000006 6.2599999999999998 12.5199999999999996 I
atom 9.3900000000000006 6.2599999999999998 9.3900000000000006 Na
atom 12.5199999999999996 9.3900000000000006 12.5199999999999996 I
atom 12.5199999999999996 9.3900000000000006 9.3900000000000006 Na
atom 15.6499999999999986 12.5199999999999996 12.5199999999999996 I
atom 0.0000000000000000 6.2599999999999998 6.2599999999999998 Na
atom 3.1299999999999999 9.3900000000000006 9.3900000000000006 I
atom 3.1299999999999999 9.3900000000000006 6.2599999999999998 Na
atom 6.2599999999999998 12.5199999999999996 9.3900000000000006 I
atom 6.2599999999999998 12.5199999999999996 6.2599999999999998 Na
atom 9.3900000000000006 15.6499999999999986 9.3900000000000006 I
atom 3.1299999999999999 6.2599999999999998 9.3900000000000006 Na
atom 6.2599999999999998 9.3900000000000006 12.5199999999999996 I
atom 6.2599999999999998 9.3900000000000006 9.3900000000000006 Na
atom 9.3900000000000006 12.5199999999999996 12.5199999999999996 I
atom 9.3900000000000006 12.5199999999999996 9.3900000000000006 Na
atom 12.5199999999999996 15.6499999999999986 12.5199999999999996 I
atom 6.2599999999999998 6.2599999999999998 12.5199999999999996 Na
atom 9.3900000000000006 9.3900000000000006 15.6499999999999986 I
atom 9.3900000000000006 9.3900000000000006 12.5199999999999996 Na
atom 12.5199999999999996 12.5199999999999996 15.6499999999999986 I
atom 12.5199999999999996 12.5199999999999996 12.5199999999999996 Na
atom 15.6499999999999986 15.6499999999999986 15.6499999999999986 I
