#=======================================================
#FHI-aims file: /home/ziletti/PycharmProjects/nomadml/tests/tmp_folder/CbVMALFnpGdoEyabKhI_3DtbUX6W7_op_0_aims.in
#Created using the Atomic Simulation Environment (ASE)
#=======================================================
lattice_vector 0.0000000000000000 9.5670000000000002 9.5670000000000002 
lattice_vector 9.5670000000000002 0.0000000000000000 9.5670000000000002 
lattice_vector 9.5670000000000002 9.5670000000000002 0.0000000000000000 
atom 0.0000000000000000 0.0000000000000000 0.0000000000000000 Rb
atom 3.1890000000000001 3.1890000000000001 3.1890000000000001 Cl
atom 3.1890000000000001 3.1890000000000001 0.0000000000000000 Rb
atom 6.3780000000000001 6.3780000000000001 3.1890000000000001 Cl
atom 6.3780000000000001 6.3780000000000001 0.0000000000000000 Rb
atom 9.5670000000000002 9.5670000000000002 3.1890000000000001 Cl
atom 3.1890000000000001 0.0000000000000000 3.1890000000000001 Rb
atom 6.3780000000000001 3.1890000000000001 6.3780000000000001 Cl
atom 6.3780000000000001 3.1890000000000001 3.1890000000000001 Rb
atom 9.5670000000000002 6.3780000000000001 6.3780000000000001 Cl
atom 9.5670000000000002 6.3780000000000001 3.1890000000000001 Rb
atom 12.7560000000000002 9.5670000000000002 6.3780000000000001 Cl
atom 6.3780000000000001 0.0000000000000000 6.3780000000000001 Rb
atom 9.5670000000000002 3.1890000000000001 9.5670000000000002 Cl
atom 9.5670000000000002 3.1890000000000001 6.3780000000000001 Rb
atom 12.7560000000000002 6.3780000000000001 9.5670000000000002 Cl
atom 12.7560000000000002 6.3780000000000001 6.3780000000000001 Rb
atom 15.9450000000000003 9.5670000000000002 9.5670000000000002 Cl
atom 0.0000000000000000 3.1890000000000001 3.1890000000000001 Rb
atom 3.1890000000000001 6.3780000000000001 6.3780000000000001 Cl
atom 3.1890000000000001 6.3780000000000001 3.1890000000000001 Rb
atom 6.3780000000000001 9.5670000000000002 6.3780000000000001 Cl
atom 6.3780000000000001 9.5670000000000002 3.1890000000000001 Rb
atom 9.5670000000000002 12.7560000000000002 6.3780000000000001 Cl
atom 3.1890000000000001 3.1890000000000001 6.3780000000000001 Rb
atom 6.3780000000000001 6.3780000000000001 9.5670000000000002 Cl
atom 6.3780000000000001 6.3780000000000001 6.3780000000000001 Rb
atom 9.5670000000000002 9.5670000000000002 9.5670000000000002 Cl
atom 9.5670000000000002 9.5670000000000002 6.3780000000000001 Rb
atom 12.7560000000000002 12.7560000000000002 9.5670000000000002 Cl
atom 6.3780000000000001 3.1890000000000001 9.5670000000000002 Rb
atom 9.5670000000000002 6.3780000000000001 12.7560000000000002 Cl
atom 9.5670000000000002 6.3780000000000001 9.5670000000000002 Rb
atom 12.7560000000000002 9.5670000000000002 12.7560000000000002 Cl
atom 12.7560000000000002 9.5670000000000002 9.5670000000000002 Rb
atom 15.9450000000000003 12.7560000000000002 12.7560000000000002 Cl
atom 0.0000000000000000 6.3780000000000001 6.3780000000000001 Rb
atom 3.1890000000000001 9.5670000000000002 9.5670000000000002 Cl
atom 3.1890000000000001 9.5670000000000002 6.3780000000000001 Rb
atom 6.3780000000000001 12.7560000000000002 9.5670000000000002 Cl
atom 6.3780000000000001 12.7560000000000002 6.3780000000000001 Rb
atom 9.5670000000000002 15.9450000000000003 9.5670000000000002 Cl
atom 3.1890000000000001 6.3780000000000001 9.5670000000000002 Rb
atom 6.3780000000000001 9.5670000000000002 12.7560000000000002 Cl
atom 6.3780000000000001 9.5670000000000002 9.5670000000000002 Rb
atom 9.5670000000000002 12.7560000000000002 12.7560000000000002 Cl
atom 9.5670000000000002 12.7560000000000002 9.5670000000000002 Rb
atom 12.7560000000000002 15.9450000000000003 12.7560000000000002 Cl
atom 6.3780000000000001 6.3780000000000001 12.7560000000000002 Rb
atom 9.5670000000000002 9.5670000000000002 15.9450000000000003 Cl
atom 9.5670000000000002 9.5670000000000002 12.7560000000000002 Rb
atom 12.7560000000000002 12.7560000000000002 15.9450000000000003 Cl
atom 12.7560000000000002 12.7560000000000002 12.7560000000000002 Rb
atom 15.9450000000000003 15.9450000000000003 15.9450000000000003 Cl
