#=======================================================
#FHI-aims file: /home/ziletti/PycharmProjects/nomadml/tests/tmp_folder/CCeh79N53GyBSPmZQQJ97G0eAHaDT_op_0_aims.in
#Created using the Atomic Simulation Environment (ASE)
#=======================================================
lattice_vector 0.0000000000000000 8.1974999999999998 8.1974999999999998 
lattice_vector 8.1974999999999998 0.0000000000000000 8.1974999999999998 
lattice_vector 8.1974999999999998 8.1974999999999998 0.0000000000000000 
atom 0.0000000000000000 0.0000000000000000 0.0000000000000000 Na
atom 2.7324999999999999 2.7324999999999999 2.7324999999999999 Cl
atom 2.7324999999999999 2.7324999999999999 0.0000000000000000 Na
atom 5.4649999999999999 5.4649999999999999 2.7324999999999999 Cl
atom 5.4649999999999999 5.4649999999999999 0.0000000000000000 Na
atom 8.1974999999999998 8.1974999999999998 2.7324999999999999 Cl
atom 2.7324999999999999 0.0000000000000000 2.7324999999999999 Na
atom 5.4649999999999999 2.7324999999999999 5.4649999999999999 Cl
atom 5.4649999999999999 2.7324999999999999 2.7324999999999999 Na
atom 8.1974999999999998 5.4649999999999999 5.4649999999999999 Cl
atom 8.1974999999999998 5.4649999999999999 2.7324999999999999 Na
atom 10.9299999999999997 8.1974999999999998 5.4649999999999999 Cl
atom 5.4649999999999999 0.0000000000000000 5.4649999999999999 Na
atom 8.1974999999999998 2.7324999999999999 8.1974999999999998 Cl
atom 8.1974999999999998 2.7324999999999999 5.4649999999999999 Na
atom 10.9299999999999997 5.4649999999999999 8.1974999999999998 Cl
atom 10.9299999999999997 5.4649999999999999 5.4649999999999999 Na
atom 13.6624999999999996 8.1974999999999998 8.1974999999999998 Cl
atom 0.0000000000000000 2.7324999999999999 2.7324999999999999 Na
atom 2.7324999999999999 5.4649999999999999 5.4649999999999999 Cl
atom 2.7324999999999999 5.4649999999999999 2.7324999999999999 Na
atom 5.4649999999999999 8.1974999999999998 5.4649999999999999 Cl
atom 5.4649999999999999 8.1974999999999998 2.7324999999999999 Na
atom 8.1974999999999998 10.9299999999999997 5.4649999999999999 Cl
atom 2.7324999999999999 2.7324999999999999 5.4649999999999999 Na
atom 5.4649999999999999 5.4649999999999999 8.1974999999999998 Cl
atom 5.4649999999999999 5.4649999999999999 5.4649999999999999 Na
atom 8.1974999999999998 8.1974999999999998 8.1974999999999998 Cl
atom 8.1974999999999998 8.1974999999999998 5.4649999999999999 Na
atom 10.9299999999999997 10.9299999999999997 8.1974999999999998 Cl
atom 5.4649999999999999 2.7324999999999999 8.1974999999999998 Na
atom 8.1974999999999998 5.4649999999999999 10.9299999999999997 Cl
atom 8.1974999999999998 5.4649999999999999 8.1974999999999998 Na
atom 10.9299999999999997 8.1974999999999998 10.9299999999999997 Cl
atom 10.9299999999999997 8.1974999999999998 8.1974999999999998 Na
atom 13.6624999999999996 10.9299999999999997 10.9299999999999997 Cl
atom 0.0000000000000000 5.4649999999999999 5.4649999999999999 Na
atom 2.7324999999999999 8.1974999999999998 8.1974999999999998 Cl
atom 2.7324999999999999 8.1974999999999998 5.4649999999999999 Na
atom 5.4649999999999999 10.9299999999999997 8.1974999999999998 Cl
atom 5.4649999999999999 10.9299999999999997 5.4649999999999999 Na
atom 8.1974999999999998 13.6624999999999996 8.1974999999999998 Cl
atom 2.7324999999999999 5.4649999999999999 8.1974999999999998 Na
atom 5.4649999999999999 8.1974999999999998 10.9299999999999997 Cl
atom 5.4649999999999999 8.1974999999999998 8.1974999999999998 Na
atom 8.1974999999999998 10.9299999999999997 10.9299999999999997 Cl
atom 8.1974999999999998 10.9299999999999997 8.1974999999999998 Na
atom 10.9299999999999997 13.6624999999999996 10.9299999999999997 Cl
atom 5.4649999999999999 5.4649999999999999 10.9299999999999997 Na
atom 8.1974999999999998 8.1974999999999998 13.6624999999999996 Cl
atom 8.1974999999999998 8.1974999999999998 10.9299999999999997 Na
atom 10.9299999999999997 10.9299999999999997 13.6624999999999996 Cl
atom 10.9299999999999997 10.9299999999999997 10.9299999999999997 Na
atom 13.6624999999999996 13.6624999999999996 13.6624999999999996 Cl
