#=======================================================
#FHI-aims file: /home/ziletti/PycharmProjects/nomadml/tests/tmp_folder/CcYC-NeMnx_goUeYg8PmaNVo0chDc_op_0_aims.in
#Created using the Atomic Simulation Environment (ASE)
#=======================================================
lattice_vector 0.0000000000000000 8.2469999999999999 8.2469999999999999 
lattice_vector 8.2469999999999999 0.0000000000000000 8.2469999999999999 
lattice_vector 8.2469999999999999 8.2469999999999999 0.0000000000000000 
atom 0.0000000000000000 0.0000000000000000 0.0000000000000000 Cu
atom 1.3745000000000001 1.3745000000000001 1.3745000000000001 Br
atom 2.7490000000000001 2.7490000000000001 0.0000000000000000 Cu
atom 4.1234999999999999 4.1234999999999999 1.3745000000000001 Br
atom 5.4980000000000002 5.4980000000000002 0.0000000000000000 Cu
atom 6.8725000000000005 6.8725000000000005 1.3745000000000001 Br
atom 2.7490000000000001 0.0000000000000000 2.7490000000000001 Cu
atom 4.1234999999999999 1.3745000000000001 4.1234999999999999 Br
atom 5.4980000000000002 2.7490000000000001 2.7490000000000001 Cu
atom 6.8725000000000005 4.1234999999999999 4.1234999999999999 Br
atom 8.2469999999999999 5.4980000000000002 2.7490000000000001 Cu
atom 9.6214999999999993 6.8725000000000005 4.1234999999999999 Br
atom 5.4980000000000002 0.0000000000000000 5.4980000000000002 Cu
atom 6.8725000000000005 1.3745000000000001 6.8725000000000005 Br
atom 8.2469999999999999 2.7490000000000001 5.4980000000000002 Cu
atom 9.6214999999999993 4.1234999999999999 6.8725000000000005 Br
atom 10.9960000000000004 5.4980000000000002 5.4980000000000002 Cu
atom 12.3704999999999998 6.8725000000000005 6.8725000000000005 Br
atom 0.0000000000000000 2.7490000000000001 2.7490000000000001 Cu
atom 1.3745000000000001 4.1234999999999999 4.1234999999999999 Br
atom 2.7490000000000001 5.4980000000000002 2.7490000000000001 Cu
atom 4.1234999999999999 6.8725000000000005 4.1234999999999999 Br
atom 5.4980000000000002 8.2469999999999999 2.7490000000000001 Cu
atom 6.8725000000000005 9.6214999999999993 4.1234999999999999 Br
atom 2.7490000000000001 2.7490000000000001 5.4980000000000002 Cu
atom 4.1234999999999999 4.1234999999999999 6.8725000000000005 Br
atom 5.4980000000000002 5.4980000000000002 5.4980000000000002 Cu
atom 6.8725000000000005 6.8725000000000005 6.8725000000000005 Br
atom 8.2469999999999999 8.2469999999999999 5.4980000000000002 Cu
atom 9.6214999999999993 9.6214999999999993 6.8725000000000005 Br
atom 5.4980000000000002 2.7490000000000001 8.2469999999999999 Cu
atom 6.8725000000000005 4.1234999999999999 9.6214999999999993 Br
atom 8.2469999999999999 5.4980000000000002 8.2469999999999999 Cu
atom 9.6214999999999993 6.8725000000000005 9.6214999999999993 Br
atom 10.9960000000000004 8.2469999999999999 8.2469999999999999 Cu
atom 12.3704999999999998 9.6214999999999993 9.6214999999999993 Br
atom 0.0000000000000000 5.4980000000000002 5.4980000000000002 Cu
atom 1.3745000000000001 6.8725000000000005 6.8725000000000005 Br
atom 2.7490000000000001 8.2469999999999999 5.4980000000000002 Cu
atom 4.1234999999999999 9.6214999999999993 6.8725000000000005 Br
atom 5.4980000000000002 10.9960000000000004 5.4980000000000002 Cu
atom 6.8725000000000005 12.3704999999999998 6.8725000000000005 Br
atom 2.7490000000000001 5.4980000000000002 8.2469999999999999 Cu
atom 4.1234999999999999 6.8725000000000005 9.6214999999999993 Br
atom 5.4980000000000002 8.2469999999999999 8.2469999999999999 Cu
atom 6.8725000000000005 9.6214999999999993 9.6214999999999993 Br
atom 8.2469999999999999 10.9960000000000004 8.2469999999999999 Cu
atom 9.6214999999999993 12.3704999999999998 9.6214999999999993 Br
atom 5.4980000000000002 5.4980000000000002 10.9960000000000004 Cu
atom 6.8725000000000005 6.8725000000000005 12.3704999999999998 Br
atom 8.2469999999999999 8.2469999999999999 10.9960000000000004 Cu
atom 9.6214999999999993 9.6214999999999993 12.3704999999999998 Br
atom 10.9960000000000004 10.9960000000000004 10.9960000000000004 Cu
atom 12.3704999999999998 12.3704999999999998 12.3704999999999998 Br
