#=======================================================
#FHI-aims file: /home/ziletti/PycharmProjects/nomadml/tests/tmp_folder/CcyDh6nCotXyohIHh5k1dx5L5D5X9_op_0_aims.in
#Created using the Atomic Simulation Environment (ASE)
#=======================================================
lattice_vector 0.0000000000000000 6.5955000000000004 6.5955000000000004 
lattice_vector 6.5955000000000004 0.0000000000000000 6.5955000000000004 
lattice_vector 6.5955000000000004 6.5955000000000004 0.0000000000000000 
atom 0.0000000000000000 0.0000000000000000 0.0000000000000000 Cu
atom 2.1985000000000001 2.1985000000000001 2.1985000000000001 F
atom 2.1985000000000001 2.1985000000000001 0.0000000000000000 Cu
atom 4.3970000000000002 4.3970000000000002 2.1985000000000001 F
atom 4.3970000000000002 4.3970000000000002 0.0000000000000000 Cu
atom 6.5955000000000004 6.5955000000000004 2.1985000000000001 F
atom 2.1985000000000001 0.0000000000000000 2.1985000000000001 Cu
atom 4.3970000000000002 2.1985000000000001 4.3970000000000002 F
atom 4.3970000000000002 2.1985000000000001 2.1985000000000001 Cu
atom 6.5955000000000004 4.3970000000000002 4.3970000000000002 F
atom 6.5955000000000004 4.3970000000000002 2.1985000000000001 Cu
atom 8.7940000000000005 6.5955000000000004 4.3970000000000002 F
atom 4.3970000000000002 0.0000000000000000 4.3970000000000002 Cu
atom 6.5955000000000004 2.1985000000000001 6.5955000000000004 F
atom 6.5955000000000004 2.1985000000000001 4.3970000000000002 Cu
atom 8.7940000000000005 4.3970000000000002 6.5955000000000004 F
atom 8.7940000000000005 4.3970000000000002 4.3970000000000002 Cu
atom 10.9924999999999997 6.5955000000000004 6.5955000000000004 F
atom 0.0000000000000000 2.1985000000000001 2.1985000000000001 Cu
atom 2.1985000000000001 4.3970000000000002 4.3970000000000002 F
atom 2.1985000000000001 4.3970000000000002 2.1985000000000001 Cu
atom 4.3970000000000002 6.5955000000000004 4.3970000000000002 F
atom 4.3970000000000002 6.5955000000000004 2.1985000000000001 Cu
atom 6.5955000000000004 8.7940000000000005 4.3970000000000002 F
atom 2.1985000000000001 2.1985000000000001 4.3970000000000002 Cu
atom 4.3970000000000002 4.3970000000000002 6.5955000000000004 F
atom 4.3970000000000002 4.3970000000000002 4.3970000000000002 Cu
atom 6.5955000000000004 6.5955000000000004 6.5955000000000004 F
atom 6.5955000000000004 6.5955000000000004 4.3970000000000002 Cu
atom 8.7940000000000005 8.7940000000000005 6.5955000000000004 F
atom 4.3970000000000002 2.1985000000000001 6.5955000000000004 Cu
atom 6.5955000000000004 4.3970000000000002 8.7940000000000005 F
atom 6.5955000000000004 4.3970000000000002 6.5955000000000004 Cu
atom 8.7940000000000005 6.5955000000000004 8.7940000000000005 F
atom 8.7940000000000005 6.5955000000000004 6.5955000000000004 Cu
atom 10.9924999999999997 8.7940000000000005 8.7940000000000005 F
atom 0.0000000000000000 4.3970000000000002 4.3970000000000002 Cu
atom 2.1985000000000001 6.5955000000000004 6.5955000000000004 F
atom 2.1985000000000001 6.5955000000000004 4.3970000000000002 Cu
atom 4.3970000000000002 8.7940000000000005 6.5955000000000004 F
atom 4.3970000000000002 8.7940000000000005 4.3970000000000002 Cu
atom 6.5955000000000004 10.9924999999999997 6.5955000000000004 F
atom 2.1985000000000001 4.3970000000000002 6.5955000000000004 Cu
atom 4.3970000000000002 6.5955000000000004 8.7940000000000005 F
atom 4.3970000000000002 6.5955000000000004 6.5955000000000004 Cu
atom 6.5955000000000004 8.7940000000000005 8.7940000000000005 F
atom 6.5955000000000004 8.7940000000000005 6.5955000000000004 Cu
atom 8.7940000000000005 10.9924999999999997 8.7940000000000005 F
atom 4.3970000000000002 4.3970000000000002 8.7940000000000005 Cu
atom 6.5955000000000004 6.5955000000000004 10.9924999999999997 F
atom 6.5955000000000004 6.5955000000000004 8.7940000000000005 Cu
atom 8.7940000000000005 8.7940000000000005 10.9924999999999997 F
atom 8.7940000000000005 8.7940000000000005 8.7940000000000005 Cu
atom 10.9924999999999997 10.9924999999999997 10.9924999999999997 F
