#=======================================================
#FHI-aims file: /home/ziletti/PycharmProjects/nomadml/tests/tmp_folder/Cd5Tx2nPg7dFY-jys9XwKne6OQtKX_op_0_aims.in
#Created using the Atomic Simulation Environment (ASE)
#=======================================================
lattice_vector 0.0000000000000000 10.0004999999999988 10.0004999999999988 
lattice_vector 10.0004999999999988 0.0000000000000000 10.0004999999999988 
lattice_vector 10.0004999999999988 10.0004999999999988 0.0000000000000000 
atom 0.0000000000000000 0.0000000000000000 0.0000000000000000 Rb
atom 3.3334999999999999 3.3334999999999999 3.3334999999999999 Br
atom 3.3334999999999999 3.3334999999999999 0.0000000000000000 Rb
atom 6.6669999999999998 6.6669999999999998 3.3334999999999999 Br
atom 6.6669999999999998 6.6669999999999998 0.0000000000000000 Rb
atom 10.0004999999999988 10.0004999999999988 3.3334999999999999 Br
atom 3.3334999999999999 0.0000000000000000 3.3334999999999999 Rb
atom 6.6669999999999998 3.3334999999999999 6.6669999999999998 Br
atom 6.6669999999999998 3.3334999999999999 3.3334999999999999 Rb
atom 10.0004999999999988 6.6669999999999998 6.6669999999999998 Br
atom 10.0004999999999988 6.6669999999999998 3.3334999999999999 Rb
atom 13.3339999999999996 10.0004999999999988 6.6669999999999998 Br
atom 6.6669999999999998 0.0000000000000000 6.6669999999999998 Rb
atom 10.0004999999999988 3.3334999999999999 10.0004999999999988 Br
atom 10.0004999999999988 3.3334999999999999 6.6669999999999998 Rb
atom 13.3339999999999996 6.6669999999999998 10.0004999999999988 Br
atom 13.3339999999999996 6.6669999999999998 6.6669999999999998 Rb
atom 16.6675000000000004 10.0004999999999988 10.0004999999999988 Br
atom 0.0000000000000000 3.3334999999999999 3.3334999999999999 Rb
atom 3.3334999999999999 6.6669999999999998 6.6669999999999998 Br
atom 3.3334999999999999 6.6669999999999998 3.3334999999999999 Rb
atom 6.6669999999999998 10.0004999999999988 6.6669999999999998 Br
atom 6.6669999999999998 10.0004999999999988 3.3334999999999999 Rb
atom 10.0004999999999988 13.3339999999999996 6.6669999999999998 Br
atom 3.3334999999999999 3.3334999999999999 6.6669999999999998 Rb
atom 6.6669999999999998 6.6669999999999998 10.0004999999999988 Br
atom 6.6669999999999998 6.6669999999999998 6.6669999999999998 Rb
atom 10.0004999999999988 10.0004999999999988 10.0004999999999988 Br
atom 10.0004999999999988 10.0004999999999988 6.6669999999999998 Rb
atom 13.3339999999999996 13.3339999999999996 10.0004999999999988 Br
atom 6.6669999999999998 3.3334999999999999 10.0004999999999988 Rb
atom 10.0004999999999988 6.6669999999999998 13.3339999999999996 Br
atom 10.0004999999999988 6.6669999999999998 10.0004999999999988 Rb
atom 13.3339999999999996 10.0004999999999988 13.3339999999999996 Br
atom 13.3339999999999996 10.0004999999999988 10.0004999999999988 Rb
atom 16.6675000000000004 13.3339999999999996 13.3339999999999996 Br
atom 0.0000000000000000 6.6669999999999998 6.6669999999999998 Rb
atom 3.3334999999999999 10.0004999999999988 10.0004999999999988 Br
atom 3.3334999999999999 10.0004999999999988 6.6669999999999998 Rb
atom 6.6669999999999998 13.3339999999999996 10.0004999999999988 Br
atom 6.6669999999999998 13.3339999999999996 6.6669999999999998 Rb
atom 10.0004999999999988 16.6675000000000004 10.0004999999999988 Br
atom 3.3334999999999999 6.6669999999999998 10.0004999999999988 Rb
atom 6.6669999999999998 10.0004999999999988 13.3339999999999996 Br
atom 6.6669999999999998 10.0004999999999988 10.0004999999999988 Rb
atom 10.0004999999999988 13.3339999999999996 13.3339999999999996 Br
atom 10.0004999999999988 13.3339999999999996 10.0004999999999988 Rb
atom 13.3339999999999996 16.6675000000000004 13.3339999999999996 Br
atom 6.6669999999999998 6.6669999999999998 13.3339999999999996 Rb
atom 10.0004999999999988 10.0004999999999988 16.6675000000000004 Br
atom 10.0004999999999988 10.0004999999999988 13.3339999999999996 Rb
atom 13.3339999999999996 13.3339999999999996 16.6675000000000004 Br
atom 13.3339999999999996 13.3339999999999996 13.3339999999999996 Rb
atom 16.6675000000000004 16.6675000000000004 16.6675000000000004 Br
