#=======================================================
#FHI-aims file: /home/ziletti/PycharmProjects/nomadml/tests/tmp_folder/CdHoVKHCES7XtBpTVk0eihbo0kqmR_op_0_aims.in
#Created using the Atomic Simulation Environment (ASE)
#=======================================================
lattice_vector 0.0000000000000000 8.6400000000000006 8.6400000000000006 
lattice_vector 8.6400000000000006 0.0000000000000000 8.6400000000000006 
lattice_vector 8.6400000000000006 8.6400000000000006 0.0000000000000000 
atom 0.0000000000000000 0.0000000000000000 0.0000000000000000 Cd
atom 1.4399999999999999 1.4399999999999999 1.4399999999999999 S
atom 2.8799999999999999 2.8799999999999999 0.0000000000000000 Cd
atom 4.3200000000000003 4.3200000000000003 1.4399999999999999 S
atom 5.7599999999999998 5.7599999999999998 0.0000000000000000 Cd
atom 7.1999999999999993 7.1999999999999993 1.4399999999999999 S
atom 2.8799999999999999 0.0000000000000000 2.8799999999999999 Cd
atom 4.3200000000000003 1.4399999999999999 4.3200000000000003 S
atom 5.7599999999999998 2.8799999999999999 2.8799999999999999 Cd
atom 7.1999999999999993 4.3200000000000003 4.3200000000000003 S
atom 8.6400000000000006 5.7599999999999998 2.8799999999999999 Cd
atom 10.0800000000000001 7.1999999999999993 4.3200000000000003 S
atom 5.7599999999999998 0.0000000000000000 5.7599999999999998 Cd
atom 7.1999999999999993 1.4399999999999999 7.1999999999999993 S
atom 8.6400000000000006 2.8799999999999999 5.7599999999999998 Cd
atom 10.0800000000000001 4.3200000000000003 7.1999999999999993 S
atom 11.5199999999999996 5.7599999999999998 5.7599999999999998 Cd
atom 12.9599999999999991 7.1999999999999993 7.1999999999999993 S
atom 0.0000000000000000 2.8799999999999999 2.8799999999999999 Cd
atom 1.4399999999999999 4.3200000000000003 4.3200000000000003 S
atom 2.8799999999999999 5.7599999999999998 2.8799999999999999 Cd
atom 4.3200000000000003 7.1999999999999993 4.3200000000000003 S
atom 5.7599999999999998 8.6400000000000006 2.8799999999999999 Cd
atom 7.1999999999999993 10.0800000000000001 4.3200000000000003 S
atom 2.8799999999999999 2.8799999999999999 5.7599999999999998 Cd
atom 4.3200000000000003 4.3200000000000003 7.1999999999999993 S
atom 5.7599999999999998 5.7599999999999998 5.7599999999999998 Cd
atom 7.1999999999999993 7.1999999999999993 7.1999999999999993 S
atom 8.6400000000000006 8.6400000000000006 5.7599999999999998 Cd
atom 10.0800000000000001 10.0800000000000001 7.1999999999999993 S
atom 5.7599999999999998 2.8799999999999999 8.6400000000000006 Cd
atom 7.1999999999999993 4.3200000000000003 10.0800000000000001 S
atom 8.6400000000000006 5.7599999999999998 8.6400000000000006 Cd
atom 10.0800000000000001 7.1999999999999993 10.0800000000000001 S
atom 11.5199999999999996 8.6400000000000006 8.6400000000000006 Cd
atom 12.9599999999999991 10.0800000000000001 10.0800000000000001 S
atom 0.0000000000000000 5.7599999999999998 5.7599999999999998 Cd
atom 1.4399999999999999 7.1999999999999993 7.1999999999999993 S
atom 2.8799999999999999 8.6400000000000006 5.7599999999999998 Cd
atom 4.3200000000000003 10.0800000000000001 7.1999999999999993 S
atom 5.7599999999999998 11.5199999999999996 5.7599999999999998 Cd
atom 7.1999999999999993 12.9599999999999991 7.1999999999999993 S
atom 2.8799999999999999 5.7599999999999998 8.6400000000000006 Cd
atom 4.3200000000000003 7.1999999999999993 10.0800000000000001 S
atom 5.7599999999999998 8.6400000000000006 8.6400000000000006 Cd
atom 7.1999999999999993 10.0800000000000001 10.0800000000000001 S
atom 8.6400000000000006 11.5199999999999996 8.6400000000000006 Cd
atom 10.0800000000000001 12.9599999999999991 10.0800000000000001 S
atom 5.7599999999999998 5.7599999999999998 11.5199999999999996 Cd
atom 7.1999999999999993 7.1999999999999993 12.9599999999999991 S
atom 8.6400000000000006 8.6400000000000006 11.5199999999999996 Cd
atom 10.0800000000000001 10.0800000000000001 12.9599999999999991 S
atom 11.5199999999999996 11.5199999999999996 11.5199999999999996 Cd
atom 12.9599999999999991 12.9599999999999991 12.9599999999999991 S
