#=======================================================
#FHI-aims file: /home/ziletti/PycharmProjects/nomadml/tests/tmp_folder/CEhAEeu8aSPA_d3_dHCjTlAi1y09j_op_0_aims.in
#Created using the Atomic Simulation Environment (ASE)
#=======================================================
lattice_vector 0.0000000000000000 6.7395000000000005 6.7395000000000005 
lattice_vector 6.7395000000000005 0.0000000000000000 6.7395000000000005 
lattice_vector 6.7395000000000005 6.7395000000000005 0.0000000000000000 
atom 0.0000000000000000 0.0000000000000000 0.0000000000000000 Zn
atom 1.1232500000000001 1.1232500000000001 1.1232500000000001 O
atom 2.2465000000000002 2.2465000000000002 0.0000000000000000 Zn
atom 3.3697500000000002 3.3697500000000002 1.1232500000000001 O
atom 4.4930000000000003 4.4930000000000003 0.0000000000000000 Zn
atom 5.6162500000000009 5.6162500000000009 1.1232500000000001 O
atom 2.2465000000000002 0.0000000000000000 2.2465000000000002 Zn
atom 3.3697500000000002 1.1232500000000001 3.3697500000000002 O
atom 4.4930000000000003 2.2465000000000002 2.2465000000000002 Zn
atom 5.6162500000000009 3.3697500000000002 3.3697500000000002 O
atom 6.7395000000000005 4.4930000000000003 2.2465000000000002 Zn
atom 7.8627500000000001 5.6162500000000009 3.3697500000000002 O
atom 4.4930000000000003 0.0000000000000000 4.4930000000000003 Zn
atom 5.6162500000000009 1.1232500000000001 5.6162500000000009 O
atom 6.7395000000000005 2.2465000000000002 4.4930000000000003 Zn
atom 7.8627500000000001 3.3697500000000002 5.6162500000000009 O
atom 8.9860000000000007 4.4930000000000003 4.4930000000000003 Zn
atom 10.1092500000000012 5.6162500000000009 5.6162500000000009 O
atom 0.0000000000000000 2.2465000000000002 2.2465000000000002 Zn
atom 1.1232500000000001 3.3697500000000002 3.3697500000000002 O
atom 2.2465000000000002 4.4930000000000003 2.2465000000000002 Zn
atom 3.3697500000000002 5.6162500000000009 3.3697500000000002 O
atom 4.4930000000000003 6.7395000000000005 2.2465000000000002 Zn
atom 5.6162500000000009 7.8627500000000001 3.3697500000000002 O
atom 2.2465000000000002 2.2465000000000002 4.4930000000000003 Zn
atom 3.3697500000000002 3.3697500000000002 5.6162500000000009 O
atom 4.4930000000000003 4.4930000000000003 4.4930000000000003 Zn
atom 5.6162500000000009 5.6162500000000009 5.6162500000000009 O
atom 6.7395000000000005 6.7395000000000005 4.4930000000000003 Zn
atom 7.8627500000000001 7.8627500000000001 5.6162500000000009 O
atom 4.4930000000000003 2.2465000000000002 6.7395000000000005 Zn
atom 5.6162500000000009 3.3697500000000002 7.8627500000000001 O
atom 6.7395000000000005 4.4930000000000003 6.7395000000000005 Zn
atom 7.8627500000000001 5.6162500000000009 7.8627500000000001 O
atom 8.9860000000000007 6.7395000000000005 6.7395000000000005 Zn
atom 10.1092500000000012 7.8627500000000001 7.8627500000000001 O
atom 0.0000000000000000 4.4930000000000003 4.4930000000000003 Zn
atom 1.1232500000000001 5.6162500000000009 5.6162500000000009 O
atom 2.2465000000000002 6.7395000000000005 4.4930000000000003 Zn
atom 3.3697500000000002 7.8627500000000001 5.6162500000000009 O
atom 4.4930000000000003 8.9860000000000007 4.4930000000000003 Zn
atom 5.6162500000000009 10.1092500000000012 5.6162500000000009 O
atom 2.2465000000000002 4.4930000000000003 6.7395000000000005 Zn
atom 3.3697500000000002 5.6162500000000009 7.8627500000000001 O
atom 4.4930000000000003 6.7395000000000005 6.7395000000000005 Zn
atom 5.6162500000000009 7.8627500000000001 7.8627500000000001 O
atom 6.7395000000000005 8.9860000000000007 6.7395000000000005 Zn
atom 7.8627500000000001 10.1092500000000012 7.8627500000000001 O
atom 4.4930000000000003 4.4930000000000003 8.9860000000000007 Zn
atom 5.6162500000000009 5.6162500000000009 10.1092500000000012 O
atom 6.7395000000000005 6.7395000000000005 8.9860000000000007 Zn
atom 7.8627500000000001 7.8627500000000001 10.1092500000000012 O
atom 8.9860000000000007 8.9860000000000007 8.9860000000000007 Zn
atom 10.1092500000000012 10.1092500000000012 10.1092500000000012 O
