#=======================================================
#FHI-aims file: /home/ziletti/PycharmProjects/nomadml/tests/tmp_folder/CeXgyF2iElVtNWSX9xZhroKK8nJJ4_op_0_aims.in
#Created using the Atomic Simulation Environment (ASE)
#=======================================================
lattice_vector 0.0000000000000000 9.5579999999999998 9.5579999999999998 
lattice_vector 9.5579999999999998 0.0000000000000000 9.5579999999999998 
lattice_vector 9.5579999999999998 9.5579999999999998 0.0000000000000000 
atom 0.0000000000000000 0.0000000000000000 0.0000000000000000 K
atom 3.1859999999999999 3.1859999999999999 3.1859999999999999 Br
atom 3.1859999999999999 3.1859999999999999 0.0000000000000000 K
atom 6.3719999999999999 6.3719999999999999 3.1859999999999999 Br
atom 6.3719999999999999 6.3719999999999999 0.0000000000000000 K
atom 9.5579999999999998 9.5579999999999998 3.1859999999999999 Br
atom 3.1859999999999999 0.0000000000000000 3.1859999999999999 K
atom 6.3719999999999999 3.1859999999999999 6.3719999999999999 Br
atom 6.3719999999999999 3.1859999999999999 3.1859999999999999 K
atom 9.5579999999999998 6.3719999999999999 6.3719999999999999 Br
atom 9.5579999999999998 6.3719999999999999 3.1859999999999999 K
atom 12.7439999999999998 9.5579999999999998 6.3719999999999999 Br
atom 6.3719999999999999 0.0000000000000000 6.3719999999999999 K
atom 9.5579999999999998 3.1859999999999999 9.5579999999999998 Br
atom 9.5579999999999998 3.1859999999999999 6.3719999999999999 K
atom 12.7439999999999998 6.3719999999999999 9.5579999999999998 Br
atom 12.7439999999999998 6.3719999999999999 6.3719999999999999 K
atom 15.9299999999999997 9.5579999999999998 9.5579999999999998 Br
atom 0.0000000000000000 3.1859999999999999 3.1859999999999999 K
atom 3.1859999999999999 6.3719999999999999 6.3719999999999999 Br
atom 3.1859999999999999 6.3719999999999999 3.1859999999999999 K
atom 6.3719999999999999 9.5579999999999998 6.3719999999999999 Br
atom 6.3719999999999999 9.5579999999999998 3.1859999999999999 K
atom 9.5579999999999998 12.7439999999999998 6.3719999999999999 Br
atom 3.1859999999999999 3.1859999999999999 6.3719999999999999 K
atom 6.3719999999999999 6.3719999999999999 9.5579999999999998 Br
atom 6.3719999999999999 6.3719999999999999 6.3719999999999999 K
atom 9.5579999999999998 9.5579999999999998 9.5579999999999998 Br
atom 9.5579999999999998 9.5579999999999998 6.3719999999999999 K
atom 12.7439999999999998 12.7439999999999998 9.5579999999999998 Br
atom 6.3719999999999999 3.1859999999999999 9.5579999999999998 K
atom 9.5579999999999998 6.3719999999999999 12.7439999999999998 Br
atom 9.5579999999999998 6.3719999999999999 9.5579999999999998 K
atom 12.7439999999999998 9.5579999999999998 12.7439999999999998 Br
atom 12.7439999999999998 9.5579999999999998 9.5579999999999998 K
atom 15.9299999999999997 12.7439999999999998 12.7439999999999998 Br
atom 0.0000000000000000 6.3719999999999999 6.3719999999999999 K
atom 3.1859999999999999 9.5579999999999998 9.5579999999999998 Br
atom 3.1859999999999999 9.5579999999999998 6.3719999999999999 K
atom 6.3719999999999999 12.7439999999999998 9.5579999999999998 Br
atom 6.3719999999999999 12.7439999999999998 6.3719999999999999 K
atom 9.5579999999999998 15.9299999999999997 9.5579999999999998 Br
atom 3.1859999999999999 6.3719999999999999 9.5579999999999998 K
atom 6.3719999999999999 9.5579999999999998 12.7439999999999998 Br
atom 6.3719999999999999 9.5579999999999998 9.5579999999999998 K
atom 9.5579999999999998 12.7439999999999998 12.7439999999999998 Br
atom 9.5579999999999998 12.7439999999999998 9.5579999999999998 K
atom 12.7439999999999998 15.9299999999999997 12.7439999999999998 Br
atom 6.3719999999999999 6.3719999999999999 12.7439999999999998 K
atom 9.5579999999999998 9.5579999999999998 15.9299999999999997 Br
atom 9.5579999999999998 9.5579999999999998 12.7439999999999998 K
atom 12.7439999999999998 12.7439999999999998 15.9299999999999997 Br
atom 12.7439999999999998 12.7439999999999998 12.7439999999999998 K
atom 15.9299999999999997 15.9299999999999997 15.9299999999999997 Br
