#=======================================================
#FHI-aims file: /home/ziletti/PycharmProjects/nomadml/tests/tmp_folder/CEYkIqgUpWfoq4Tcsy8_bFVUs9mko_op_0_aims.in
#Created using the Atomic Simulation Environment (ASE)
#=======================================================
lattice_vector 0.0000000000000000 5.5301400000000012 5.5301400000000012 
lattice_vector 5.5301400000000012 0.0000000000000000 5.5301400000000012 
lattice_vector 5.5301400000000012 5.5301400000000012 0.0000000000000000 
atom 0.0000000000000000 0.0000000000000000 0.0000000000000000 Be
atom 0.9216900000000001 0.9216900000000001 0.9216900000000001 O
atom 1.8433800000000002 1.8433800000000002 0.0000000000000000 Be
atom 2.7650700000000006 2.7650700000000006 0.9216900000000001 O
atom 3.6867600000000005 3.6867600000000005 0.0000000000000000 Be
atom 4.6084500000000004 4.6084500000000004 0.9216900000000001 O
atom 1.8433800000000002 0.0000000000000000 1.8433800000000002 Be
atom 2.7650700000000006 0.9216900000000001 2.7650700000000006 O
atom 3.6867600000000005 1.8433800000000002 1.8433800000000002 Be
atom 4.6084500000000004 2.7650700000000006 2.7650700000000006 O
atom 5.5301400000000012 3.6867600000000005 1.8433800000000002 Be
atom 6.4518300000000011 4.6084500000000004 2.7650700000000006 O
atom 3.6867600000000005 0.0000000000000000 3.6867600000000005 Be
atom 4.6084500000000004 0.9216900000000001 4.6084500000000004 O
atom 5.5301400000000012 1.8433800000000002 3.6867600000000005 Be
atom 6.4518300000000011 2.7650700000000006 4.6084500000000004 O
atom 7.3735200000000010 3.6867600000000005 3.6867600000000005 Be
atom 8.2952100000000009 4.6084500000000004 4.6084500000000004 O
atom 0.0000000000000000 1.8433800000000002 1.8433800000000002 Be
atom 0.9216900000000001 2.7650700000000006 2.7650700000000006 O
atom 1.8433800000000002 3.6867600000000005 1.8433800000000002 Be
atom 2.7650700000000006 4.6084500000000004 2.7650700000000006 O
atom 3.6867600000000005 5.5301400000000012 1.8433800000000002 Be
atom 4.6084500000000004 6.4518300000000011 2.7650700000000006 O
atom 1.8433800000000002 1.8433800000000002 3.6867600000000005 Be
atom 2.7650700000000006 2.7650700000000006 4.6084500000000004 O
atom 3.6867600000000005 3.6867600000000005 3.6867600000000005 Be
atom 4.6084500000000004 4.6084500000000004 4.6084500000000004 O
atom 5.5301400000000012 5.5301400000000012 3.6867600000000005 Be
atom 6.4518300000000011 6.4518300000000011 4.6084500000000004 O
atom 3.6867600000000005 1.8433800000000002 5.5301400000000012 Be
atom 4.6084500000000004 2.7650700000000006 6.4518300000000011 O
atom 5.5301400000000012 3.6867600000000005 5.5301400000000012 Be
atom 6.4518300000000011 4.6084500000000004 6.4518300000000011 O
atom 7.3735200000000010 5.5301400000000012 5.5301400000000012 Be
atom 8.2952100000000009 6.4518300000000011 6.4518300000000011 O
atom 0.0000000000000000 3.6867600000000005 3.6867600000000005 Be
atom 0.9216900000000001 4.6084500000000004 4.6084500000000004 O
atom 1.8433800000000002 5.5301400000000012 3.6867600000000005 Be
atom 2.7650700000000006 6.4518300000000011 4.6084500000000004 O
atom 3.6867600000000005 7.3735200000000010 3.6867600000000005 Be
atom 4.6084500000000004 8.2952100000000009 4.6084500000000004 O
atom 1.8433800000000002 3.6867600000000005 5.5301400000000012 Be
atom 2.7650700000000006 4.6084500000000004 6.4518300000000011 O
atom 3.6867600000000005 5.5301400000000012 5.5301400000000012 Be
atom 4.6084500000000004 6.4518300000000011 6.4518300000000011 O
atom 5.5301400000000012 7.3735200000000010 5.5301400000000012 Be
atom 6.4518300000000011 8.2952100000000009 6.4518300000000011 O
atom 3.6867600000000005 3.6867600000000005 7.3735200000000010 Be
atom 4.6084500000000004 4.6084500000000004 8.2952100000000009 O
atom 5.5301400000000012 5.5301400000000012 7.3735200000000010 Be
atom 6.4518300000000011 6.4518300000000011 8.2952100000000009 O
atom 7.3735200000000010 7.3735200000000010 7.3735200000000010 Be
atom 8.2952100000000009 8.2952100000000009 8.2952100000000009 O
