#=======================================================
#FHI-aims file: /home/ziletti/PycharmProjects/nomadml/tests/tmp_folder/CfGXdJkORwLQ-aX-d9bla7obqtnkt_op_0_aims.in
#Created using the Atomic Simulation Environment (ASE)
#=======================================================
lattice_vector 0.0000000000000000 8.1044999999999998 8.1044999999999998 
lattice_vector 8.1044999999999998 0.0000000000000000 8.1044999999999998 
lattice_vector 8.1044999999999998 8.1044999999999998 0.0000000000000000 
atom 0.0000000000000000 0.0000000000000000 0.0000000000000000 Si
atom 1.3507499999999999 1.3507499999999999 1.3507499999999999 Si
atom 2.7014999999999998 2.7014999999999998 0.0000000000000000 Si
atom 4.0522499999999999 4.0522499999999999 1.3507499999999999 Si
atom 5.4029999999999996 5.4029999999999996 0.0000000000000000 Si
atom 6.7537499999999993 6.7537499999999993 1.3507499999999999 Si
atom 2.7014999999999998 0.0000000000000000 2.7014999999999998 Si
atom 4.0522499999999999 1.3507499999999999 4.0522499999999999 Si
atom 5.4029999999999996 2.7014999999999998 2.7014999999999998 Si
atom 6.7537499999999993 4.0522499999999999 4.0522499999999999 Si
atom 8.1044999999999998 5.4029999999999996 2.7014999999999998 Si
atom 9.4552499999999995 6.7537499999999993 4.0522499999999999 Si
atom 5.4029999999999996 0.0000000000000000 5.4029999999999996 Si
atom 6.7537499999999993 1.3507499999999999 6.7537499999999993 Si
atom 8.1044999999999998 2.7014999999999998 5.4029999999999996 Si
atom 9.4552499999999995 4.0522499999999999 6.7537499999999993 Si
atom 10.8059999999999992 5.4029999999999996 5.4029999999999996 Si
atom 12.1567499999999988 6.7537499999999993 6.7537499999999993 Si
atom 0.0000000000000000 2.7014999999999998 2.7014999999999998 Si
atom 1.3507499999999999 4.0522499999999999 4.0522499999999999 Si
atom 2.7014999999999998 5.4029999999999996 2.7014999999999998 Si
atom 4.0522499999999999 6.7537499999999993 4.0522499999999999 Si
atom 5.4029999999999996 8.1044999999999998 2.7014999999999998 Si
atom 6.7537499999999993 9.4552499999999995 4.0522499999999999 Si
atom 2.7014999999999998 2.7014999999999998 5.4029999999999996 Si
atom 4.0522499999999999 4.0522499999999999 6.7537499999999993 Si
atom 5.4029999999999996 5.4029999999999996 5.4029999999999996 Si
atom 6.7537499999999993 6.7537499999999993 6.7537499999999993 Si
atom 8.1044999999999998 8.1044999999999998 5.4029999999999996 Si
atom 9.4552499999999995 9.4552499999999995 6.7537499999999993 Si
atom 5.4029999999999996 2.7014999999999998 8.1044999999999998 Si
atom 6.7537499999999993 4.0522499999999999 9.4552499999999995 Si
atom 8.1044999999999998 5.4029999999999996 8.1044999999999998 Si
atom 9.4552499999999995 6.7537499999999993 9.4552499999999995 Si
atom 10.8059999999999992 8.1044999999999998 8.1044999999999998 Si
atom 12.1567499999999988 9.4552499999999995 9.4552499999999995 Si
atom 0.0000000000000000 5.4029999999999996 5.4029999999999996 Si
atom 1.3507499999999999 6.7537499999999993 6.7537499999999993 Si
atom 2.7014999999999998 8.1044999999999998 5.4029999999999996 Si
atom 4.0522499999999999 9.4552499999999995 6.7537499999999993 Si
atom 5.4029999999999996 10.8059999999999992 5.4029999999999996 Si
atom 6.7537499999999993 12.1567499999999988 6.7537499999999993 Si
atom 2.7014999999999998 5.4029999999999996 8.1044999999999998 Si
atom 4.0522499999999999 6.7537499999999993 9.4552499999999995 Si
atom 5.4029999999999996 8.1044999999999998 8.1044999999999998 Si
atom 6.7537499999999993 9.4552499999999995 9.4552499999999995 Si
atom 8.1044999999999998 10.8059999999999992 8.1044999999999998 Si
atom 9.4552499999999995 12.1567499999999988 9.4552499999999995 Si
atom 5.4029999999999996 5.4029999999999996 10.8059999999999992 Si
atom 6.7537499999999993 6.7537499999999993 12.1567499999999988 Si
atom 8.1044999999999998 8.1044999999999998 10.8059999999999992 Si
atom 9.4552499999999995 9.4552499999999995 12.1567499999999988 Si
atom 10.8059999999999992 10.8059999999999992 10.8059999999999992 Si
atom 12.1567499999999988 12.1567499999999988 12.1567499999999988 Si
