#=======================================================
#FHI-aims file: /home/ziletti/PycharmProjects/nomadml/tests/tmp_folder/CGRvHpDj8bRbzvIL0c9yfOmeZjfah_op_0_aims.in
#Created using the Atomic Simulation Environment (ASE)
#=======================================================
lattice_vector 0.0000000000000000 9.1170000000000009 9.1170000000000009 
lattice_vector 9.1170000000000009 0.0000000000000000 9.1170000000000009 
lattice_vector 9.1170000000000009 9.1170000000000009 0.0000000000000000 
atom 0.0000000000000000 0.0000000000000000 0.0000000000000000 K
atom 3.0390000000000001 3.0390000000000001 3.0390000000000001 Cl
atom 3.0390000000000001 3.0390000000000001 0.0000000000000000 K
atom 6.0780000000000003 6.0780000000000003 3.0390000000000001 Cl
atom 6.0780000000000003 6.0780000000000003 0.0000000000000000 K
atom 9.1170000000000009 9.1170000000000009 3.0390000000000001 Cl
atom 3.0390000000000001 0.0000000000000000 3.0390000000000001 K
atom 6.0780000000000003 3.0390000000000001 6.0780000000000003 Cl
atom 6.0780000000000003 3.0390000000000001 3.0390000000000001 K
atom 9.1170000000000009 6.0780000000000003 6.0780000000000003 Cl
atom 9.1170000000000009 6.0780000000000003 3.0390000000000001 K
atom 12.1560000000000006 9.1170000000000009 6.0780000000000003 Cl
atom 6.0780000000000003 0.0000000000000000 6.0780000000000003 K
atom 9.1170000000000009 3.0390000000000001 9.1170000000000009 Cl
atom 9.1170000000000009 3.0390000000000001 6.0780000000000003 K
atom 12.1560000000000006 6.0780000000000003 9.1170000000000009 Cl
atom 12.1560000000000006 6.0780000000000003 6.0780000000000003 K
atom 15.1950000000000003 9.1170000000000009 9.1170000000000009 Cl
atom 0.0000000000000000 3.0390000000000001 3.0390000000000001 K
atom 3.0390000000000001 6.0780000000000003 6.0780000000000003 Cl
atom 3.0390000000000001 6.0780000000000003 3.0390000000000001 K
atom 6.0780000000000003 9.1170000000000009 6.0780000000000003 Cl
atom 6.0780000000000003 9.1170000000000009 3.0390000000000001 K
atom 9.1170000000000009 12.1560000000000006 6.0780000000000003 Cl
atom 3.0390000000000001 3.0390000000000001 6.0780000000000003 K
atom 6.0780000000000003 6.0780000000000003 9.1170000000000009 Cl
atom 6.0780000000000003 6.0780000000000003 6.0780000000000003 K
atom 9.1170000000000009 9.1170000000000009 9.1170000000000009 Cl
atom 9.1170000000000009 9.1170000000000009 6.0780000000000003 K
atom 12.1560000000000006 12.1560000000000006 9.1170000000000009 Cl
atom 6.0780000000000003 3.0390000000000001 9.1170000000000009 K
atom 9.1170000000000009 6.0780000000000003 12.1560000000000006 Cl
atom 9.1170000000000009 6.0780000000000003 9.1170000000000009 K
atom 12.1560000000000006 9.1170000000000009 12.1560000000000006 Cl
atom 12.1560000000000006 9.1170000000000009 9.1170000000000009 K
atom 15.1950000000000003 12.1560000000000006 12.1560000000000006 Cl
atom 0.0000000000000000 6.0780000000000003 6.0780000000000003 K
atom 3.0390000000000001 9.1170000000000009 9.1170000000000009 Cl
atom 3.0390000000000001 9.1170000000000009 6.0780000000000003 K
atom 6.0780000000000003 12.1560000000000006 9.1170000000000009 Cl
atom 6.0780000000000003 12.1560000000000006 6.0780000000000003 K
atom 9.1170000000000009 15.1950000000000003 9.1170000000000009 Cl
atom 3.0390000000000001 6.0780000000000003 9.1170000000000009 K
atom 6.0780000000000003 9.1170000000000009 12.1560000000000006 Cl
atom 6.0780000000000003 9.1170000000000009 9.1170000000000009 K
atom 9.1170000000000009 12.1560000000000006 12.1560000000000006 Cl
atom 9.1170000000000009 12.1560000000000006 9.1170000000000009 K
atom 12.1560000000000006 15.1950000000000003 12.1560000000000006 Cl
atom 6.0780000000000003 6.0780000000000003 12.1560000000000006 K
atom 9.1170000000000009 9.1170000000000009 15.1950000000000003 Cl
atom 9.1170000000000009 9.1170000000000009 12.1560000000000006 K
atom 12.1560000000000006 12.1560000000000006 15.1950000000000003 Cl
atom 12.1560000000000006 12.1560000000000006 12.1560000000000006 K
atom 15.1950000000000003 15.1950000000000003 15.1950000000000003 Cl
