#=======================================================
#FHI-aims file: /home/ziletti/PycharmProjects/nomadml/tests/tmp_folder/ChaEAJ72mzGm65KpjGcnVVlFax_l7_op_0_aims.in
#Created using the Atomic Simulation Environment (ASE)
#=======================================================
lattice_vector 0.0000000000000000 8.9969999999999999 8.9969999999999999 
lattice_vector 8.9969999999999999 0.0000000000000000 8.9969999999999999 
lattice_vector 8.9969999999999999 8.9969999999999999 0.0000000000000000 
atom 0.0000000000000000 0.0000000000000000 0.0000000000000000 Zn
atom 1.4995000000000001 1.4995000000000001 1.4995000000000001 Te
atom 2.9990000000000001 2.9990000000000001 0.0000000000000000 Zn
atom 4.4984999999999999 4.4984999999999999 1.4995000000000001 Te
atom 5.9980000000000002 5.9980000000000002 0.0000000000000000 Zn
atom 7.4975000000000005 7.4975000000000005 1.4995000000000001 Te
atom 2.9990000000000001 0.0000000000000000 2.9990000000000001 Zn
atom 4.4984999999999999 1.4995000000000001 4.4984999999999999 Te
atom 5.9980000000000002 2.9990000000000001 2.9990000000000001 Zn
atom 7.4975000000000005 4.4984999999999999 4.4984999999999999 Te
atom 8.9969999999999999 5.9980000000000002 2.9990000000000001 Zn
atom 10.4964999999999993 7.4975000000000005 4.4984999999999999 Te
atom 5.9980000000000002 0.0000000000000000 5.9980000000000002 Zn
atom 7.4975000000000005 1.4995000000000001 7.4975000000000005 Te
atom 8.9969999999999999 2.9990000000000001 5.9980000000000002 Zn
atom 10.4964999999999993 4.4984999999999999 7.4975000000000005 Te
atom 11.9960000000000004 5.9980000000000002 5.9980000000000002 Zn
atom 13.4954999999999998 7.4975000000000005 7.4975000000000005 Te
atom 0.0000000000000000 2.9990000000000001 2.9990000000000001 Zn
atom 1.4995000000000001 4.4984999999999999 4.4984999999999999 Te
atom 2.9990000000000001 5.9980000000000002 2.9990000000000001 Zn
atom 4.4984999999999999 7.4975000000000005 4.4984999999999999 Te
atom 5.9980000000000002 8.9969999999999999 2.9990000000000001 Zn
atom 7.4975000000000005 10.4964999999999993 4.4984999999999999 Te
atom 2.9990000000000001 2.9990000000000001 5.9980000000000002 Zn
atom 4.4984999999999999 4.4984999999999999 7.4975000000000005 Te
atom 5.9980000000000002 5.9980000000000002 5.9980000000000002 Zn
atom 7.4975000000000005 7.4975000000000005 7.4975000000000005 Te
atom 8.9969999999999999 8.9969999999999999 5.9980000000000002 Zn
atom 10.4964999999999993 10.4964999999999993 7.4975000000000005 Te
atom 5.9980000000000002 2.9990000000000001 8.9969999999999999 Zn
atom 7.4975000000000005 4.4984999999999999 10.4964999999999993 Te
atom 8.9969999999999999 5.9980000000000002 8.9969999999999999 Zn
atom 10.4964999999999993 7.4975000000000005 10.4964999999999993 Te
atom 11.9960000000000004 8.9969999999999999 8.9969999999999999 Zn
atom 13.4954999999999998 10.4964999999999993 10.4964999999999993 Te
atom 0.0000000000000000 5.9980000000000002 5.9980000000000002 Zn
atom 1.4995000000000001 7.4975000000000005 7.4975000000000005 Te
atom 2.9990000000000001 8.9969999999999999 5.9980000000000002 Zn
atom 4.4984999999999999 10.4964999999999993 7.4975000000000005 Te
atom 5.9980000000000002 11.9960000000000004 5.9980000000000002 Zn
atom 7.4975000000000005 13.4954999999999998 7.4975000000000005 Te
atom 2.9990000000000001 5.9980000000000002 8.9969999999999999 Zn
atom 4.4984999999999999 7.4975000000000005 10.4964999999999993 Te
atom 5.9980000000000002 8.9969999999999999 8.9969999999999999 Zn
atom 7.4975000000000005 10.4964999999999993 10.4964999999999993 Te
atom 8.9969999999999999 11.9960000000000004 8.9969999999999999 Zn
atom 10.4964999999999993 13.4954999999999998 10.4964999999999993 Te
atom 5.9980000000000002 5.9980000000000002 11.9960000000000004 Zn
atom 7.4975000000000005 7.4975000000000005 13.4954999999999998 Te
atom 8.9969999999999999 8.9969999999999999 11.9960000000000004 Zn
atom 10.4964999999999993 10.4964999999999993 13.4954999999999998 Te
atom 11.9960000000000004 11.9960000000000004 11.9960000000000004 Zn
atom 13.4954999999999998 13.4954999999999998 13.4954999999999998 Te
