#=======================================================
#FHI-aims file: /home/ziletti/PycharmProjects/nomadml/tests/tmp_folder/CHfNgOoPEHjzs9iOh900vIUv-GVJl_op_0_aims.in
#Created using the Atomic Simulation Environment (ASE)
#=======================================================
lattice_vector 0.0000000000000000 6.7379999999999995 6.7379999999999995 
lattice_vector 6.7379999999999995 0.0000000000000000 6.7379999999999995 
lattice_vector 6.7379999999999995 6.7379999999999995 0.0000000000000000 
atom 0.0000000000000000 0.0000000000000000 0.0000000000000000 B
atom 1.1230000000000000 1.1230000000000000 1.1230000000000000 P
atom 2.2460000000000000 2.2460000000000000 0.0000000000000000 B
atom 3.3689999999999998 3.3689999999999998 1.1230000000000000 P
atom 4.4920000000000000 4.4920000000000000 0.0000000000000000 B
atom 5.6150000000000002 5.6150000000000002 1.1230000000000000 P
atom 2.2460000000000000 0.0000000000000000 2.2460000000000000 B
atom 3.3689999999999998 1.1230000000000000 3.3689999999999998 P
atom 4.4920000000000000 2.2460000000000000 2.2460000000000000 B
atom 5.6150000000000002 3.3689999999999998 3.3689999999999998 P
atom 6.7379999999999995 4.4920000000000000 2.2460000000000000 B
atom 7.8609999999999998 5.6150000000000002 3.3689999999999998 P
atom 4.4920000000000000 0.0000000000000000 4.4920000000000000 B
atom 5.6150000000000002 1.1230000000000000 5.6150000000000002 P
atom 6.7379999999999995 2.2460000000000000 4.4920000000000000 B
atom 7.8609999999999998 3.3689999999999998 5.6150000000000002 P
atom 8.9840000000000000 4.4920000000000000 4.4920000000000000 B
atom 10.1069999999999993 5.6150000000000002 5.6150000000000002 P
atom 0.0000000000000000 2.2460000000000000 2.2460000000000000 B
atom 1.1230000000000000 3.3689999999999998 3.3689999999999998 P
atom 2.2460000000000000 4.4920000000000000 2.2460000000000000 B
atom 3.3689999999999998 5.6150000000000002 3.3689999999999998 P
atom 4.4920000000000000 6.7379999999999995 2.2460000000000000 B
atom 5.6150000000000002 7.8609999999999998 3.3689999999999998 P
atom 2.2460000000000000 2.2460000000000000 4.4920000000000000 B
atom 3.3689999999999998 3.3689999999999998 5.6150000000000002 P
atom 4.4920000000000000 4.4920000000000000 4.4920000000000000 B
atom 5.6150000000000002 5.6150000000000002 5.6150000000000002 P
atom 6.7379999999999995 6.7379999999999995 4.4920000000000000 B
atom 7.8609999999999998 7.8609999999999998 5.6150000000000002 P
atom 4.4920000000000000 2.2460000000000000 6.7379999999999995 B
atom 5.6150000000000002 3.3689999999999998 7.8609999999999998 P
atom 6.7379999999999995 4.4920000000000000 6.7379999999999995 B
atom 7.8609999999999998 5.6150000000000002 7.8609999999999998 P
atom 8.9840000000000000 6.7379999999999995 6.7379999999999995 B
atom 10.1069999999999993 7.8609999999999998 7.8609999999999998 P
atom 0.0000000000000000 4.4920000000000000 4.4920000000000000 B
atom 1.1230000000000000 5.6150000000000002 5.6150000000000002 P
atom 2.2460000000000000 6.7379999999999995 4.4920000000000000 B
atom 3.3689999999999998 7.8609999999999998 5.6150000000000002 P
atom 4.4920000000000000 8.9840000000000000 4.4920000000000000 B
atom 5.6150000000000002 10.1069999999999993 5.6150000000000002 P
atom 2.2460000000000000 4.4920000000000000 6.7379999999999995 B
atom 3.3689999999999998 5.6150000000000002 7.8609999999999998 P
atom 4.4920000000000000 6.7379999999999995 6.7379999999999995 B
atom 5.6150000000000002 7.8609999999999998 7.8609999999999998 P
atom 6.7379999999999995 8.9840000000000000 6.7379999999999995 B
atom 7.8609999999999998 10.1069999999999993 7.8609999999999998 P
atom 4.4920000000000000 4.4920000000000000 8.9840000000000000 B
atom 5.6150000000000002 5.6150000000000002 10.1069999999999993 P
atom 6.7379999999999995 6.7379999999999995 8.9840000000000000 B
atom 7.8609999999999998 7.8609999999999998 10.1069999999999993 P
atom 8.9840000000000000 8.9840000000000000 8.9840000000000000 B
atom 10.1069999999999993 10.1069999999999993 10.1069999999999993 P
