#=======================================================
#FHI-aims file: /home/ziletti/PycharmProjects/nomadml/tests/tmp_folder/Chw2RDlr8RJrjY8nb2PfCE6Bf--N0_op_0_aims.in
#Created using the Atomic Simulation Environment (ASE)
#=======================================================
lattice_vector 0.0000000000000000 8.7074999999999996 8.7074999999999996 
lattice_vector 8.7074999999999996 0.0000000000000000 8.7074999999999996 
lattice_vector 8.7074999999999996 8.7074999999999996 0.0000000000000000 
atom 0.0000000000000000 0.0000000000000000 0.0000000000000000 Li
atom 2.9024999999999999 2.9024999999999999 2.9024999999999999 I
atom 2.9024999999999999 2.9024999999999999 0.0000000000000000 Li
atom 5.8049999999999997 5.8049999999999997 2.9024999999999999 I
atom 5.8049999999999997 5.8049999999999997 0.0000000000000000 Li
atom 8.7074999999999996 8.7074999999999996 2.9024999999999999 I
atom 2.9024999999999999 0.0000000000000000 2.9024999999999999 Li
atom 5.8049999999999997 2.9024999999999999 5.8049999999999997 I
atom 5.8049999999999997 2.9024999999999999 2.9024999999999999 Li
atom 8.7074999999999996 5.8049999999999997 5.8049999999999997 I
atom 8.7074999999999996 5.8049999999999997 2.9024999999999999 Li
atom 11.6099999999999994 8.7074999999999996 5.8049999999999997 I
atom 5.8049999999999997 0.0000000000000000 5.8049999999999997 Li
atom 8.7074999999999996 2.9024999999999999 8.7074999999999996 I
atom 8.7074999999999996 2.9024999999999999 5.8049999999999997 Li
atom 11.6099999999999994 5.8049999999999997 8.7074999999999996 I
atom 11.6099999999999994 5.8049999999999997 5.8049999999999997 Li
atom 14.5124999999999993 8.7074999999999996 8.7074999999999996 I
atom 0.0000000000000000 2.9024999999999999 2.9024999999999999 Li
atom 2.9024999999999999 5.8049999999999997 5.8049999999999997 I
atom 2.9024999999999999 5.8049999999999997 2.9024999999999999 Li
atom 5.8049999999999997 8.7074999999999996 5.8049999999999997 I
atom 5.8049999999999997 8.7074999999999996 2.9024999999999999 Li
atom 8.7074999999999996 11.6099999999999994 5.8049999999999997 I
atom 2.9024999999999999 2.9024999999999999 5.8049999999999997 Li
atom 5.8049999999999997 5.8049999999999997 8.7074999999999996 I
atom 5.8049999999999997 5.8049999999999997 5.8049999999999997 Li
atom 8.7074999999999996 8.7074999999999996 8.7074999999999996 I
atom 8.7074999999999996 8.7074999999999996 5.8049999999999997 Li
atom 11.6099999999999994 11.6099999999999994 8.7074999999999996 I
atom 5.8049999999999997 2.9024999999999999 8.7074999999999996 Li
atom 8.7074999999999996 5.8049999999999997 11.6099999999999994 I
atom 8.7074999999999996 5.8049999999999997 8.7074999999999996 Li
atom 11.6099999999999994 8.7074999999999996 11.6099999999999994 I
atom 11.6099999999999994 8.7074999999999996 8.7074999999999996 Li
atom 14.5124999999999993 11.6099999999999994 11.6099999999999994 I
atom 0.0000000000000000 5.8049999999999997 5.8049999999999997 Li
atom 2.9024999999999999 8.7074999999999996 8.7074999999999996 I
atom 2.9024999999999999 8.7074999999999996 5.8049999999999997 Li
atom 5.8049999999999997 11.6099999999999994 8.7074999999999996 I
atom 5.8049999999999997 11.6099999999999994 5.8049999999999997 Li
atom 8.7074999999999996 14.5124999999999993 8.7074999999999996 I
atom 2.9024999999999999 5.8049999999999997 8.7074999999999996 Li
atom 5.8049999999999997 8.7074999999999996 11.6099999999999994 I
atom 5.8049999999999997 8.7074999999999996 8.7074999999999996 Li
atom 8.7074999999999996 11.6099999999999994 11.6099999999999994 I
atom 8.7074999999999996 11.6099999999999994 8.7074999999999996 Li
atom 11.6099999999999994 14.5124999999999993 11.6099999999999994 I
atom 5.8049999999999997 5.8049999999999997 11.6099999999999994 Li
atom 8.7074999999999996 8.7074999999999996 14.5124999999999993 I
atom 8.7074999999999996 8.7074999999999996 11.6099999999999994 Li
atom 11.6099999999999994 11.6099999999999994 14.5124999999999993 I
atom 11.6099999999999994 11.6099999999999994 11.6099999999999994 Li
atom 14.5124999999999993 14.5124999999999993 14.5124999999999993 I
