#=======================================================
#FHI-aims file: /home/ziletti/PycharmProjects/nomadml/tests/tmp_folder/CiOIHShEKCjdganj-Sd0MkJaLglGr_op_0_aims.in
#Created using the Atomic Simulation Environment (ASE)
#=======================================================
lattice_vector 0.0000000000000000 8.3580000000000005 8.3580000000000005 
lattice_vector 8.3580000000000005 0.0000000000000000 8.3580000000000005 
lattice_vector 8.3580000000000005 8.3580000000000005 0.0000000000000000 
atom 0.0000000000000000 0.0000000000000000 0.0000000000000000 Zn
atom 1.3930000000000000 1.3930000000000000 1.3930000000000000 Se
atom 2.7860000000000000 2.7860000000000000 0.0000000000000000 Zn
atom 4.1790000000000003 4.1790000000000003 1.3930000000000000 Se
atom 5.5720000000000001 5.5720000000000001 0.0000000000000000 Zn
atom 6.9649999999999999 6.9649999999999999 1.3930000000000000 Se
atom 2.7860000000000000 0.0000000000000000 2.7860000000000000 Zn
atom 4.1790000000000003 1.3930000000000000 4.1790000000000003 Se
atom 5.5720000000000001 2.7860000000000000 2.7860000000000000 Zn
atom 6.9649999999999999 4.1790000000000003 4.1790000000000003 Se
atom 8.3580000000000005 5.5720000000000001 2.7860000000000000 Zn
atom 9.7510000000000012 6.9649999999999999 4.1790000000000003 Se
atom 5.5720000000000001 0.0000000000000000 5.5720000000000001 Zn
atom 6.9649999999999999 1.3930000000000000 6.9649999999999999 Se
atom 8.3580000000000005 2.7860000000000000 5.5720000000000001 Zn
atom 9.7510000000000012 4.1790000000000003 6.9649999999999999 Se
atom 11.1440000000000001 5.5720000000000001 5.5720000000000001 Zn
atom 12.5370000000000008 6.9649999999999999 6.9649999999999999 Se
atom 0.0000000000000000 2.7860000000000000 2.7860000000000000 Zn
atom 1.3930000000000000 4.1790000000000003 4.1790000000000003 Se
atom 2.7860000000000000 5.5720000000000001 2.7860000000000000 Zn
atom 4.1790000000000003 6.9649999999999999 4.1790000000000003 Se
atom 5.5720000000000001 8.3580000000000005 2.7860000000000000 Zn
atom 6.9649999999999999 9.7510000000000012 4.1790000000000003 Se
atom 2.7860000000000000 2.7860000000000000 5.5720000000000001 Zn
atom 4.1790000000000003 4.1790000000000003 6.9649999999999999 Se
atom 5.5720000000000001 5.5720000000000001 5.5720000000000001 Zn
atom 6.9649999999999999 6.9649999999999999 6.9649999999999999 Se
atom 8.3580000000000005 8.3580000000000005 5.5720000000000001 Zn
atom 9.7510000000000012 9.7510000000000012 6.9649999999999999 Se
atom 5.5720000000000001 2.7860000000000000 8.3580000000000005 Zn
atom 6.9649999999999999 4.1790000000000003 9.7510000000000012 Se
atom 8.3580000000000005 5.5720000000000001 8.3580000000000005 Zn
atom 9.7510000000000012 6.9649999999999999 9.7510000000000012 Se
atom 11.1440000000000001 8.3580000000000005 8.3580000000000005 Zn
atom 12.5370000000000008 9.7510000000000012 9.7510000000000012 Se
atom 0.0000000000000000 5.5720000000000001 5.5720000000000001 Zn
atom 1.3930000000000000 6.9649999999999999 6.9649999999999999 Se
atom 2.7860000000000000 8.3580000000000005 5.5720000000000001 Zn
atom 4.1790000000000003 9.7510000000000012 6.9649999999999999 Se
atom 5.5720000000000001 11.1440000000000001 5.5720000000000001 Zn
atom 6.9649999999999999 12.5370000000000008 6.9649999999999999 Se
atom 2.7860000000000000 5.5720000000000001 8.3580000000000005 Zn
atom 4.1790000000000003 6.9649999999999999 9.7510000000000012 Se
atom 5.5720000000000001 8.3580000000000005 8.3580000000000005 Zn
atom 6.9649999999999999 9.7510000000000012 9.7510000000000012 Se
atom 8.3580000000000005 11.1440000000000001 8.3580000000000005 Zn
atom 9.7510000000000012 12.5370000000000008 9.7510000000000012 Se
atom 5.5720000000000001 5.5720000000000001 11.1440000000000001 Zn
atom 6.9649999999999999 6.9649999999999999 12.5370000000000008 Se
atom 8.3580000000000005 8.3580000000000005 11.1440000000000001 Zn
atom 9.7510000000000012 9.7510000000000012 12.5370000000000008 Se
atom 11.1440000000000001 11.1440000000000001 11.1440000000000001 Zn
atom 12.5370000000000008 12.5370000000000008 12.5370000000000008 Se
