#=======================================================
#FHI-aims file: /home/ziletti/PycharmProjects/nomadml/tests/tmp_folder/CjGykEyzLOFynTPTNDcycF0GYg1PE_op_0_aims.in
#Created using the Atomic Simulation Environment (ASE)
#=======================================================
lattice_vector 0.0000000000000000 8.9295000000000009 8.9295000000000009 
lattice_vector 8.9295000000000009 0.0000000000000000 8.9295000000000009 
lattice_vector 8.9295000000000009 8.9295000000000009 0.0000000000000000 
atom 0.0000000000000000 0.0000000000000000 0.0000000000000000 Sn
atom 1.4882500000000001 1.4882500000000001 1.4882500000000001 Si
atom 2.9765000000000001 2.9765000000000001 0.0000000000000000 Sn
atom 4.4647500000000004 4.4647500000000004 1.4882500000000001 Si
atom 5.9530000000000003 5.9530000000000003 0.0000000000000000 Sn
atom 7.4412500000000001 7.4412500000000001 1.4882500000000001 Si
atom 2.9765000000000001 0.0000000000000000 2.9765000000000001 Sn
atom 4.4647500000000004 1.4882500000000001 4.4647500000000004 Si
atom 5.9530000000000003 2.9765000000000001 2.9765000000000001 Sn
atom 7.4412500000000001 4.4647500000000004 4.4647500000000004 Si
atom 8.9295000000000009 5.9530000000000003 2.9765000000000001 Sn
atom 10.4177500000000016 7.4412500000000001 4.4647500000000004 Si
atom 5.9530000000000003 0.0000000000000000 5.9530000000000003 Sn
atom 7.4412500000000001 1.4882500000000001 7.4412500000000001 Si
atom 8.9295000000000009 2.9765000000000001 5.9530000000000003 Sn
atom 10.4177500000000016 4.4647500000000004 7.4412500000000001 Si
atom 11.9060000000000006 5.9530000000000003 5.9530000000000003 Sn
atom 13.3942500000000013 7.4412500000000001 7.4412500000000001 Si
atom 0.0000000000000000 2.9765000000000001 2.9765000000000001 Sn
atom 1.4882500000000001 4.4647500000000004 4.4647500000000004 Si
atom 2.9765000000000001 5.9530000000000003 2.9765000000000001 Sn
atom 4.4647500000000004 7.4412500000000001 4.4647500000000004 Si
atom 5.9530000000000003 8.9295000000000009 2.9765000000000001 Sn
atom 7.4412500000000001 10.4177500000000016 4.4647500000000004 Si
atom 2.9765000000000001 2.9765000000000001 5.9530000000000003 Sn
atom 4.4647500000000004 4.4647500000000004 7.4412500000000001 Si
atom 5.9530000000000003 5.9530000000000003 5.9530000000000003 Sn
atom 7.4412500000000001 7.4412500000000001 7.4412500000000001 Si
atom 8.9295000000000009 8.9295000000000009 5.9530000000000003 Sn
atom 10.4177500000000016 10.4177500000000016 7.4412500000000001 Si
atom 5.9530000000000003 2.9765000000000001 8.9295000000000009 Sn
atom 7.4412500000000001 4.4647500000000004 10.4177500000000016 Si
atom 8.9295000000000009 5.9530000000000003 8.9295000000000009 Sn
atom 10.4177500000000016 7.4412500000000001 10.4177500000000016 Si
atom 11.9060000000000006 8.9295000000000009 8.9295000000000009 Sn
atom 13.3942500000000013 10.4177500000000016 10.4177500000000016 Si
atom 0.0000000000000000 5.9530000000000003 5.9530000000000003 Sn
atom 1.4882500000000001 7.4412500000000001 7.4412500000000001 Si
atom 2.9765000000000001 8.9295000000000009 5.9530000000000003 Sn
atom 4.4647500000000004 10.4177500000000016 7.4412500000000001 Si
atom 5.9530000000000003 11.9060000000000006 5.9530000000000003 Sn
atom 7.4412500000000001 13.3942500000000013 7.4412500000000001 Si
atom 2.9765000000000001 5.9530000000000003 8.9295000000000009 Sn
atom 4.4647500000000004 7.4412500000000001 10.4177500000000016 Si
atom 5.9530000000000003 8.9295000000000009 8.9295000000000009 Sn
atom 7.4412500000000001 10.4177500000000016 10.4177500000000016 Si
atom 8.9295000000000009 11.9060000000000006 8.9295000000000009 Sn
atom 10.4177500000000016 13.3942500000000013 10.4177500000000016 Si
atom 5.9530000000000003 5.9530000000000003 11.9060000000000006 Sn
atom 7.4412500000000001 7.4412500000000001 13.3942500000000013 Si
atom 8.9295000000000009 8.9295000000000009 11.9060000000000006 Sn
atom 10.4177500000000016 10.4177500000000016 13.3942500000000013 Si
atom 11.9060000000000006 11.9060000000000006 11.9060000000000006 Sn
atom 13.3942500000000013 13.3942500000000013 13.3942500000000013 Si
