#=======================================================
#FHI-aims file: /home/ziletti/PycharmProjects/nomadml/tests/tmp_folder/CKfJHS4WQGppgde2dACUjMuVoL2sB_op_0_aims.in
#Created using the Atomic Simulation Environment (ASE)
#=======================================================
lattice_vector 0.0000000000000000 7.7445000000000004 7.7445000000000004 
lattice_vector 7.7445000000000004 0.0000000000000000 7.7445000000000004 
lattice_vector 7.7445000000000004 7.7445000000000004 0.0000000000000000 
atom 0.0000000000000000 0.0000000000000000 0.0000000000000000 K
atom 2.5815000000000001 2.5815000000000001 2.5815000000000001 F
atom 2.5815000000000001 2.5815000000000001 0.0000000000000000 K
atom 5.1630000000000003 5.1630000000000003 2.5815000000000001 F
atom 5.1630000000000003 5.1630000000000003 0.0000000000000000 K
atom 7.7445000000000004 7.7445000000000004 2.5815000000000001 F
atom 2.5815000000000001 0.0000000000000000 2.5815000000000001 K
atom 5.1630000000000003 2.5815000000000001 5.1630000000000003 F
atom 5.1630000000000003 2.5815000000000001 2.5815000000000001 K
atom 7.7445000000000004 5.1630000000000003 5.1630000000000003 F
atom 7.7445000000000004 5.1630000000000003 2.5815000000000001 K
atom 10.3260000000000005 7.7445000000000004 5.1630000000000003 F
atom 5.1630000000000003 0.0000000000000000 5.1630000000000003 K
atom 7.7445000000000004 2.5815000000000001 7.7445000000000004 F
atom 7.7445000000000004 2.5815000000000001 5.1630000000000003 K
atom 10.3260000000000005 5.1630000000000003 7.7445000000000004 F
atom 10.3260000000000005 5.1630000000000003 5.1630000000000003 K
atom 12.9075000000000006 7.7445000000000004 7.7445000000000004 F
atom 0.0000000000000000 2.5815000000000001 2.5815000000000001 K
atom 2.5815000000000001 5.1630000000000003 5.1630000000000003 F
atom 2.5815000000000001 5.1630000000000003 2.5815000000000001 K
atom 5.1630000000000003 7.7445000000000004 5.1630000000000003 F
atom 5.1630000000000003 7.7445000000000004 2.5815000000000001 K
atom 7.7445000000000004 10.3260000000000005 5.1630000000000003 F
atom 2.5815000000000001 2.5815000000000001 5.1630000000000003 K
atom 5.1630000000000003 5.1630000000000003 7.7445000000000004 F
atom 5.1630000000000003 5.1630000000000003 5.1630000000000003 K
atom 7.7445000000000004 7.7445000000000004 7.7445000000000004 F
atom 7.7445000000000004 7.7445000000000004 5.1630000000000003 K
atom 10.3260000000000005 10.3260000000000005 7.7445000000000004 F
atom 5.1630000000000003 2.5815000000000001 7.7445000000000004 K
atom 7.7445000000000004 5.1630000000000003 10.3260000000000005 F
atom 7.7445000000000004 5.1630000000000003 7.7445000000000004 K
atom 10.3260000000000005 7.7445000000000004 10.3260000000000005 F
atom 10.3260000000000005 7.7445000000000004 7.7445000000000004 K
atom 12.9075000000000006 10.3260000000000005 10.3260000000000005 F
atom 0.0000000000000000 5.1630000000000003 5.1630000000000003 K
atom 2.5815000000000001 7.7445000000000004 7.7445000000000004 F
atom 2.5815000000000001 7.7445000000000004 5.1630000000000003 K
atom 5.1630000000000003 10.3260000000000005 7.7445000000000004 F
atom 5.1630000000000003 10.3260000000000005 5.1630000000000003 K
atom 7.7445000000000004 12.9075000000000006 7.7445000000000004 F
atom 2.5815000000000001 5.1630000000000003 7.7445000000000004 K
atom 5.1630000000000003 7.7445000000000004 10.3260000000000005 F
atom 5.1630000000000003 7.7445000000000004 7.7445000000000004 K
atom 7.7445000000000004 10.3260000000000005 10.3260000000000005 F
atom 7.7445000000000004 10.3260000000000005 7.7445000000000004 K
atom 10.3260000000000005 12.9075000000000006 10.3260000000000005 F
atom 5.1630000000000003 5.1630000000000003 10.3260000000000005 K
atom 7.7445000000000004 7.7445000000000004 12.9075000000000006 F
atom 7.7445000000000004 7.7445000000000004 10.3260000000000005 K
atom 10.3260000000000005 10.3260000000000005 12.9075000000000006 F
atom 10.3260000000000005 10.3260000000000005 10.3260000000000005 K
atom 12.9075000000000006 12.9075000000000006 12.9075000000000006 F
