#=======================================================
#FHI-aims file: /home/ziletti/PycharmProjects/nomadml/tests/tmp_folder/Ckole11VWAOiu91qHeq6lOzIM2Y1Y_op_0_aims.in
#Created using the Atomic Simulation Environment (ASE)
#=======================================================
lattice_vector 0.0000000000000000 8.7450000000000010 8.7450000000000010 
lattice_vector 8.7450000000000010 0.0000000000000000 8.7450000000000010 
lattice_vector 8.7450000000000010 8.7450000000000010 0.0000000000000000 
atom 0.0000000000000000 0.0000000000000000 0.0000000000000000 In
atom 1.4575000000000002 1.4575000000000002 1.4575000000000002 P
atom 2.9150000000000005 2.9150000000000005 0.0000000000000000 In
atom 4.3725000000000005 4.3725000000000005 1.4575000000000002 P
atom 5.8300000000000010 5.8300000000000010 0.0000000000000000 In
atom 7.2875000000000014 7.2875000000000014 1.4575000000000002 P
atom 2.9150000000000005 0.0000000000000000 2.9150000000000005 In
atom 4.3725000000000005 1.4575000000000002 4.3725000000000005 P
atom 5.8300000000000010 2.9150000000000005 2.9150000000000005 In
atom 7.2875000000000014 4.3725000000000005 4.3725000000000005 P
atom 8.7450000000000010 5.8300000000000010 2.9150000000000005 In
atom 10.2025000000000006 7.2875000000000014 4.3725000000000005 P
atom 5.8300000000000010 0.0000000000000000 5.8300000000000010 In
atom 7.2875000000000014 1.4575000000000002 7.2875000000000014 P
atom 8.7450000000000010 2.9150000000000005 5.8300000000000010 In
atom 10.2025000000000006 4.3725000000000005 7.2875000000000014 P
atom 11.6600000000000019 5.8300000000000010 5.8300000000000010 In
atom 13.1175000000000015 7.2875000000000014 7.2875000000000014 P
atom 0.0000000000000000 2.9150000000000005 2.9150000000000005 In
atom 1.4575000000000002 4.3725000000000005 4.3725000000000005 P
atom 2.9150000000000005 5.8300000000000010 2.9150000000000005 In
atom 4.3725000000000005 7.2875000000000014 4.3725000000000005 P
atom 5.8300000000000010 8.7450000000000010 2.9150000000000005 In
atom 7.2875000000000014 10.2025000000000006 4.3725000000000005 P
atom 2.9150000000000005 2.9150000000000005 5.8300000000000010 In
atom 4.3725000000000005 4.3725000000000005 7.2875000000000014 P
atom 5.8300000000000010 5.8300000000000010 5.8300000000000010 In
atom 7.2875000000000014 7.2875000000000014 7.2875000000000014 P
atom 8.7450000000000010 8.7450000000000010 5.8300000000000010 In
atom 10.2025000000000006 10.2025000000000006 7.2875000000000014 P
atom 5.8300000000000010 2.9150000000000005 8.7450000000000010 In
atom 7.2875000000000014 4.3725000000000005 10.2025000000000006 P
atom 8.7450000000000010 5.8300000000000010 8.7450000000000010 In
atom 10.2025000000000006 7.2875000000000014 10.2025000000000006 P
atom 11.6600000000000019 8.7450000000000010 8.7450000000000010 In
atom 13.1175000000000015 10.2025000000000006 10.2025000000000006 P
atom 0.0000000000000000 5.8300000000000010 5.8300000000000010 In
atom 1.4575000000000002 7.2875000000000014 7.2875000000000014 P
atom 2.9150000000000005 8.7450000000000010 5.8300000000000010 In
atom 4.3725000000000005 10.2025000000000006 7.2875000000000014 P
atom 5.8300000000000010 11.6600000000000019 5.8300000000000010 In
atom 7.2875000000000014 13.1175000000000015 7.2875000000000014 P
atom 2.9150000000000005 5.8300000000000010 8.7450000000000010 In
atom 4.3725000000000005 7.2875000000000014 10.2025000000000006 P
atom 5.8300000000000010 8.7450000000000010 8.7450000000000010 In
atom 7.2875000000000014 10.2025000000000006 10.2025000000000006 P
atom 8.7450000000000010 11.6600000000000019 8.7450000000000010 In
atom 10.2025000000000006 13.1175000000000015 10.2025000000000006 P
atom 5.8300000000000010 5.8300000000000010 11.6600000000000019 In
atom 7.2875000000000014 7.2875000000000014 13.1175000000000015 P
atom 8.7450000000000010 8.7450000000000010 11.6600000000000019 In
atom 10.2025000000000006 10.2025000000000006 13.1175000000000015 P
atom 11.6600000000000019 11.6600000000000019 11.6600000000000019 In
atom 13.1175000000000015 13.1175000000000015 13.1175000000000015 P
