#=======================================================
#FHI-aims file: /home/ziletti/PycharmProjects/nomadml/tests/tmp_folder/CKSpxMXqdSstTt6Es26kroYBYENnq_op_0_aims.in
#Created using the Atomic Simulation Environment (ASE)
#=======================================================
lattice_vector 0.0000000000000000 8.8590000000000000 8.8590000000000000 
lattice_vector 8.8590000000000000 0.0000000000000000 8.8590000000000000 
lattice_vector 8.8590000000000000 8.8590000000000000 0.0000000000000000 
atom 0.0000000000000000 0.0000000000000000 0.0000000000000000 Sr
atom 2.9529999999999998 2.9529999999999998 2.9529999999999998 S
atom 2.9529999999999998 2.9529999999999998 0.0000000000000000 Sr
atom 5.9059999999999997 5.9059999999999997 2.9529999999999998 S
atom 5.9059999999999997 5.9059999999999997 0.0000000000000000 Sr
atom 8.8590000000000000 8.8590000000000000 2.9529999999999998 S
atom 2.9529999999999998 0.0000000000000000 2.9529999999999998 Sr
atom 5.9059999999999997 2.9529999999999998 5.9059999999999997 S
atom 5.9059999999999997 2.9529999999999998 2.9529999999999998 Sr
atom 8.8590000000000000 5.9059999999999997 5.9059999999999997 S
atom 8.8590000000000000 5.9059999999999997 2.9529999999999998 Sr
atom 11.8119999999999994 8.8590000000000000 5.9059999999999997 S
atom 5.9059999999999997 0.0000000000000000 5.9059999999999997 Sr
atom 8.8590000000000000 2.9529999999999998 8.8590000000000000 S
atom 8.8590000000000000 2.9529999999999998 5.9059999999999997 Sr
atom 11.8119999999999994 5.9059999999999997 8.8590000000000000 S
atom 11.8119999999999994 5.9059999999999997 5.9059999999999997 Sr
atom 14.7649999999999988 8.8590000000000000 8.8590000000000000 S
atom 0.0000000000000000 2.9529999999999998 2.9529999999999998 Sr
atom 2.9529999999999998 5.9059999999999997 5.9059999999999997 S
atom 2.9529999999999998 5.9059999999999997 2.9529999999999998 Sr
atom 5.9059999999999997 8.8590000000000000 5.9059999999999997 S
atom 5.9059999999999997 8.8590000000000000 2.9529999999999998 Sr
atom 8.8590000000000000 11.8119999999999994 5.9059999999999997 S
atom 2.9529999999999998 2.9529999999999998 5.9059999999999997 Sr
atom 5.9059999999999997 5.9059999999999997 8.8590000000000000 S
atom 5.9059999999999997 5.9059999999999997 5.9059999999999997 Sr
atom 8.8590000000000000 8.8590000000000000 8.8590000000000000 S
atom 8.8590000000000000 8.8590000000000000 5.9059999999999997 Sr
atom 11.8119999999999994 11.8119999999999994 8.8590000000000000 S
atom 5.9059999999999997 2.9529999999999998 8.8590000000000000 Sr
atom 8.8590000000000000 5.9059999999999997 11.8119999999999994 S
atom 8.8590000000000000 5.9059999999999997 8.8590000000000000 Sr
atom 11.8119999999999994 8.8590000000000000 11.8119999999999994 S
atom 11.8119999999999994 8.8590000000000000 8.8590000000000000 Sr
atom 14.7649999999999988 11.8119999999999994 11.8119999999999994 S
atom 0.0000000000000000 5.9059999999999997 5.9059999999999997 Sr
atom 2.9529999999999998 8.8590000000000000 8.8590000000000000 S
atom 2.9529999999999998 8.8590000000000000 5.9059999999999997 Sr
atom 5.9059999999999997 11.8119999999999994 8.8590000000000000 S
atom 5.9059999999999997 11.8119999999999994 5.9059999999999997 Sr
atom 8.8590000000000000 14.7649999999999988 8.8590000000000000 S
atom 2.9529999999999998 5.9059999999999997 8.8590000000000000 Sr
atom 5.9059999999999997 8.8590000000000000 11.8119999999999994 S
atom 5.9059999999999997 8.8590000000000000 8.8590000000000000 Sr
atom 8.8590000000000000 11.8119999999999994 11.8119999999999994 S
atom 8.8590000000000000 11.8119999999999994 8.8590000000000000 Sr
atom 11.8119999999999994 14.7649999999999988 11.8119999999999994 S
atom 5.9059999999999997 5.9059999999999997 11.8119999999999994 Sr
atom 8.8590000000000000 8.8590000000000000 14.7649999999999988 S
atom 8.8590000000000000 8.8590000000000000 11.8119999999999994 Sr
atom 11.8119999999999994 11.8119999999999994 14.7649999999999988 S
atom 11.8119999999999994 11.8119999999999994 11.8119999999999994 Sr
atom 14.7649999999999988 14.7649999999999988 14.7649999999999988 S
