#=======================================================
#FHI-aims file: /home/ziletti/PycharmProjects/nomadml/tests/tmp_folder/CKu0vasdF5E6n3C3QydIjCtGOIla4_op_0_aims.in
#Created using the Atomic Simulation Environment (ASE)
#=======================================================
lattice_vector 0.0000000000000000 9.3134999999999994 9.3134999999999994 
lattice_vector 9.3134999999999994 0.0000000000000000 9.3134999999999994 
lattice_vector 9.3134999999999994 9.3134999999999994 0.0000000000000000 
atom 0.0000000000000000 0.0000000000000000 0.0000000000000000 Ca
atom 3.1044999999999998 3.1044999999999998 3.1044999999999998 Te
atom 3.1044999999999998 3.1044999999999998 0.0000000000000000 Ca
atom 6.2089999999999996 6.2089999999999996 3.1044999999999998 Te
atom 6.2089999999999996 6.2089999999999996 0.0000000000000000 Ca
atom 9.3134999999999994 9.3134999999999994 3.1044999999999998 Te
atom 3.1044999999999998 0.0000000000000000 3.1044999999999998 Ca
atom 6.2089999999999996 3.1044999999999998 6.2089999999999996 Te
atom 6.2089999999999996 3.1044999999999998 3.1044999999999998 Ca
atom 9.3134999999999994 6.2089999999999996 6.2089999999999996 Te
atom 9.3134999999999994 6.2089999999999996 3.1044999999999998 Ca
atom 12.4179999999999993 9.3134999999999994 6.2089999999999996 Te
atom 6.2089999999999996 0.0000000000000000 6.2089999999999996 Ca
atom 9.3134999999999994 3.1044999999999998 9.3134999999999994 Te
atom 9.3134999999999994 3.1044999999999998 6.2089999999999996 Ca
atom 12.4179999999999993 6.2089999999999996 9.3134999999999994 Te
atom 12.4179999999999993 6.2089999999999996 6.2089999999999996 Ca
atom 15.5224999999999991 9.3134999999999994 9.3134999999999994 Te
atom 0.0000000000000000 3.1044999999999998 3.1044999999999998 Ca
atom 3.1044999999999998 6.2089999999999996 6.2089999999999996 Te
atom 3.1044999999999998 6.2089999999999996 3.1044999999999998 Ca
atom 6.2089999999999996 9.3134999999999994 6.2089999999999996 Te
atom 6.2089999999999996 9.3134999999999994 3.1044999999999998 Ca
atom 9.3134999999999994 12.4179999999999993 6.2089999999999996 Te
atom 3.1044999999999998 3.1044999999999998 6.2089999999999996 Ca
atom 6.2089999999999996 6.2089999999999996 9.3134999999999994 Te
atom 6.2089999999999996 6.2089999999999996 6.2089999999999996 Ca
atom 9.3134999999999994 9.3134999999999994 9.3134999999999994 Te
atom 9.3134999999999994 9.3134999999999994 6.2089999999999996 Ca
atom 12.4179999999999993 12.4179999999999993 9.3134999999999994 Te
atom 6.2089999999999996 3.1044999999999998 9.3134999999999994 Ca
atom 9.3134999999999994 6.2089999999999996 12.4179999999999993 Te
atom 9.3134999999999994 6.2089999999999996 9.3134999999999994 Ca
atom 12.4179999999999993 9.3134999999999994 12.4179999999999993 Te
atom 12.4179999999999993 9.3134999999999994 9.3134999999999994 Ca
atom 15.5224999999999991 12.4179999999999993 12.4179999999999993 Te
atom 0.0000000000000000 6.2089999999999996 6.2089999999999996 Ca
atom 3.1044999999999998 9.3134999999999994 9.3134999999999994 Te
atom 3.1044999999999998 9.3134999999999994 6.2089999999999996 Ca
atom 6.2089999999999996 12.4179999999999993 9.3134999999999994 Te
atom 6.2089999999999996 12.4179999999999993 6.2089999999999996 Ca
atom 9.3134999999999994 15.5224999999999991 9.3134999999999994 Te
atom 3.1044999999999998 6.2089999999999996 9.3134999999999994 Ca
atom 6.2089999999999996 9.3134999999999994 12.4179999999999993 Te
atom 6.2089999999999996 9.3134999999999994 9.3134999999999994 Ca
atom 9.3134999999999994 12.4179999999999993 12.4179999999999993 Te
atom 9.3134999999999994 12.4179999999999993 9.3134999999999994 Ca
atom 12.4179999999999993 15.5224999999999991 12.4179999999999993 Te
atom 6.2089999999999996 6.2089999999999996 12.4179999999999993 Ca
atom 9.3134999999999994 9.3134999999999994 15.5224999999999991 Te
atom 9.3134999999999994 9.3134999999999994 12.4179999999999993 Ca
atom 12.4179999999999993 12.4179999999999993 15.5224999999999991 Te
atom 12.4179999999999993 12.4179999999999993 12.4179999999999993 Ca
atom 15.5224999999999991 15.5224999999999991 15.5224999999999991 Te
