#=======================================================
#FHI-aims file: /home/ziletti/PycharmProjects/nomadml/tests/tmp_folder/Cl7aTuAjyxpsJM7vLAOVHYwJm-QE6_op_0_aims.in
#Created using the Atomic Simulation Environment (ASE)
#=======================================================
lattice_vector 0.0000000000000000 9.7904999999999998 9.7904999999999998 
lattice_vector 9.7904999999999998 0.0000000000000000 9.7904999999999998 
lattice_vector 9.7904999999999998 9.7904999999999998 0.0000000000000000 
atom 0.0000000000000000 0.0000000000000000 0.0000000000000000 Sr
atom 3.2635000000000001 3.2635000000000001 3.2635000000000001 Te
atom 3.2635000000000001 3.2635000000000001 0.0000000000000000 Sr
atom 6.5270000000000001 6.5270000000000001 3.2635000000000001 Te
atom 6.5270000000000001 6.5270000000000001 0.0000000000000000 Sr
atom 9.7904999999999998 9.7904999999999998 3.2635000000000001 Te
atom 3.2635000000000001 0.0000000000000000 3.2635000000000001 Sr
atom 6.5270000000000001 3.2635000000000001 6.5270000000000001 Te
atom 6.5270000000000001 3.2635000000000001 3.2635000000000001 Sr
atom 9.7904999999999998 6.5270000000000001 6.5270000000000001 Te
atom 9.7904999999999998 6.5270000000000001 3.2635000000000001 Sr
atom 13.0540000000000003 9.7904999999999998 6.5270000000000001 Te
atom 6.5270000000000001 0.0000000000000000 6.5270000000000001 Sr
atom 9.7904999999999998 3.2635000000000001 9.7904999999999998 Te
atom 9.7904999999999998 3.2635000000000001 6.5270000000000001 Sr
atom 13.0540000000000003 6.5270000000000001 9.7904999999999998 Te
atom 13.0540000000000003 6.5270000000000001 6.5270000000000001 Sr
atom 16.3174999999999990 9.7904999999999998 9.7904999999999998 Te
atom 0.0000000000000000 3.2635000000000001 3.2635000000000001 Sr
atom 3.2635000000000001 6.5270000000000001 6.5270000000000001 Te
atom 3.2635000000000001 6.5270000000000001 3.2635000000000001 Sr
atom 6.5270000000000001 9.7904999999999998 6.5270000000000001 Te
atom 6.5270000000000001 9.7904999999999998 3.2635000000000001 Sr
atom 9.7904999999999998 13.0540000000000003 6.5270000000000001 Te
atom 3.2635000000000001 3.2635000000000001 6.5270000000000001 Sr
atom 6.5270000000000001 6.5270000000000001 9.7904999999999998 Te
atom 6.5270000000000001 6.5270000000000001 6.5270000000000001 Sr
atom 9.7904999999999998 9.7904999999999998 9.7904999999999998 Te
atom 9.7904999999999998 9.7904999999999998 6.5270000000000001 Sr
atom 13.0540000000000003 13.0540000000000003 9.7904999999999998 Te
atom 6.5270000000000001 3.2635000000000001 9.7904999999999998 Sr
atom 9.7904999999999998 6.5270000000000001 13.0540000000000003 Te
atom 9.7904999999999998 6.5270000000000001 9.7904999999999998 Sr
atom 13.0540000000000003 9.7904999999999998 13.0540000000000003 Te
atom 13.0540000000000003 9.7904999999999998 9.7904999999999998 Sr
atom 16.3174999999999990 13.0540000000000003 13.0540000000000003 Te
atom 0.0000000000000000 6.5270000000000001 6.5270000000000001 Sr
atom 3.2635000000000001 9.7904999999999998 9.7904999999999998 Te
atom 3.2635000000000001 9.7904999999999998 6.5270000000000001 Sr
atom 6.5270000000000001 13.0540000000000003 9.7904999999999998 Te
atom 6.5270000000000001 13.0540000000000003 6.5270000000000001 Sr
atom 9.7904999999999998 16.3174999999999990 9.7904999999999998 Te
atom 3.2635000000000001 6.5270000000000001 9.7904999999999998 Sr
atom 6.5270000000000001 9.7904999999999998 13.0540000000000003 Te
atom 6.5270000000000001 9.7904999999999998 9.7904999999999998 Sr
atom 9.7904999999999998 13.0540000000000003 13.0540000000000003 Te
atom 9.7904999999999998 13.0540000000000003 9.7904999999999998 Sr
atom 13.0540000000000003 16.3174999999999990 13.0540000000000003 Te
atom 6.5270000000000001 6.5270000000000001 13.0540000000000003 Sr
atom 9.7904999999999998 9.7904999999999998 16.3174999999999990 Te
atom 9.7904999999999998 9.7904999999999998 13.0540000000000003 Sr
atom 13.0540000000000003 13.0540000000000003 16.3174999999999990 Te
atom 13.0540000000000003 13.0540000000000003 13.0540000000000003 Sr
atom 16.3174999999999990 16.3174999999999990 16.3174999999999990 Te
