#=======================================================
#FHI-aims file: /home/ziletti/PycharmProjects/nomadml/tests/tmp_folder/ClIiyctCzbm5lbDOxpwEi3GbORHRD_op_0_aims.in
#Created using the Atomic Simulation Environment (ASE)
#=======================================================
lattice_vector 0.0000000000000000 9.1859999999999999 9.1859999999999999 
lattice_vector 9.1859999999999999 0.0000000000000000 9.1859999999999999 
lattice_vector 9.1859999999999999 9.1859999999999999 0.0000000000000000 
atom 0.0000000000000000 0.0000000000000000 0.0000000000000000 Sr
atom 3.0619999999999998 3.0619999999999998 3.0619999999999998 Se
atom 3.0619999999999998 3.0619999999999998 0.0000000000000000 Sr
atom 6.1239999999999997 6.1239999999999997 3.0619999999999998 Se
atom 6.1239999999999997 6.1239999999999997 0.0000000000000000 Sr
atom 9.1859999999999999 9.1859999999999999 3.0619999999999998 Se
atom 3.0619999999999998 0.0000000000000000 3.0619999999999998 Sr
atom 6.1239999999999997 3.0619999999999998 6.1239999999999997 Se
atom 6.1239999999999997 3.0619999999999998 3.0619999999999998 Sr
atom 9.1859999999999999 6.1239999999999997 6.1239999999999997 Se
atom 9.1859999999999999 6.1239999999999997 3.0619999999999998 Sr
atom 12.2479999999999993 9.1859999999999999 6.1239999999999997 Se
atom 6.1239999999999997 0.0000000000000000 6.1239999999999997 Sr
atom 9.1859999999999999 3.0619999999999998 9.1859999999999999 Se
atom 9.1859999999999999 3.0619999999999998 6.1239999999999997 Sr
atom 12.2479999999999993 6.1239999999999997 9.1859999999999999 Se
atom 12.2479999999999993 6.1239999999999997 6.1239999999999997 Sr
atom 15.3099999999999987 9.1859999999999999 9.1859999999999999 Se
atom 0.0000000000000000 3.0619999999999998 3.0619999999999998 Sr
atom 3.0619999999999998 6.1239999999999997 6.1239999999999997 Se
atom 3.0619999999999998 6.1239999999999997 3.0619999999999998 Sr
atom 6.1239999999999997 9.1859999999999999 6.1239999999999997 Se
atom 6.1239999999999997 9.1859999999999999 3.0619999999999998 Sr
atom 9.1859999999999999 12.2479999999999993 6.1239999999999997 Se
atom 3.0619999999999998 3.0619999999999998 6.1239999999999997 Sr
atom 6.1239999999999997 6.1239999999999997 9.1859999999999999 Se
atom 6.1239999999999997 6.1239999999999997 6.1239999999999997 Sr
atom 9.1859999999999999 9.1859999999999999 9.1859999999999999 Se
atom 9.1859999999999999 9.1859999999999999 6.1239999999999997 Sr
atom 12.2479999999999993 12.2479999999999993 9.1859999999999999 Se
atom 6.1239999999999997 3.0619999999999998 9.1859999999999999 Sr
atom 9.1859999999999999 6.1239999999999997 12.2479999999999993 Se
atom 9.1859999999999999 6.1239999999999997 9.1859999999999999 Sr
atom 12.2479999999999993 9.1859999999999999 12.2479999999999993 Se
atom 12.2479999999999993 9.1859999999999999 9.1859999999999999 Sr
atom 15.3099999999999987 12.2479999999999993 12.2479999999999993 Se
atom 0.0000000000000000 6.1239999999999997 6.1239999999999997 Sr
atom 3.0619999999999998 9.1859999999999999 9.1859999999999999 Se
atom 3.0619999999999998 9.1859999999999999 6.1239999999999997 Sr
atom 6.1239999999999997 12.2479999999999993 9.1859999999999999 Se
atom 6.1239999999999997 12.2479999999999993 6.1239999999999997 Sr
atom 9.1859999999999999 15.3099999999999987 9.1859999999999999 Se
atom 3.0619999999999998 6.1239999999999997 9.1859999999999999 Sr
atom 6.1239999999999997 9.1859999999999999 12.2479999999999993 Se
atom 6.1239999999999997 9.1859999999999999 9.1859999999999999 Sr
atom 9.1859999999999999 12.2479999999999993 12.2479999999999993 Se
atom 9.1859999999999999 12.2479999999999993 9.1859999999999999 Sr
atom 12.2479999999999993 15.3099999999999987 12.2479999999999993 Se
atom 6.1239999999999997 6.1239999999999997 12.2479999999999993 Sr
atom 9.1859999999999999 9.1859999999999999 15.3099999999999987 Se
atom 9.1859999999999999 9.1859999999999999 12.2479999999999993 Sr
atom 12.2479999999999993 12.2479999999999993 15.3099999999999987 Se
atom 12.2479999999999993 12.2479999999999993 12.2479999999999993 Sr
atom 15.3099999999999987 15.3099999999999987 15.3099999999999987 Se
