#=======================================================
#FHI-aims file: /home/ziletti/PycharmProjects/nomadml/tests/tmp_folder/CM3KjHYJjTA26va4uYXD8homH7pUm_op_0_aims.in
#Created using the Atomic Simulation Environment (ASE)
#=======================================================
lattice_vector 0.0000000000000000 5.3010000000000002 5.3010000000000002 
lattice_vector 5.3010000000000002 0.0000000000000000 5.3010000000000002 
lattice_vector 5.3010000000000002 5.3010000000000002 0.0000000000000000 
atom 0.0000000000000000 0.0000000000000000 0.0000000000000000 C
atom 0.8835000000000000 0.8835000000000000 0.8835000000000000 C
atom 1.7669999999999999 1.7669999999999999 0.0000000000000000 C
atom 2.6505000000000001 2.6505000000000001 0.8835000000000000 C
atom 3.5339999999999998 3.5339999999999998 0.0000000000000000 C
atom 4.4174999999999995 4.4174999999999995 0.8835000000000000 C
atom 1.7669999999999999 0.0000000000000000 1.7669999999999999 C
atom 2.6505000000000001 0.8835000000000000 2.6505000000000001 C
atom 3.5339999999999998 1.7669999999999999 1.7669999999999999 C
atom 4.4174999999999995 2.6505000000000001 2.6505000000000001 C
atom 5.3010000000000002 3.5339999999999998 1.7669999999999999 C
atom 6.1844999999999999 4.4174999999999995 2.6505000000000001 C
atom 3.5339999999999998 0.0000000000000000 3.5339999999999998 C
atom 4.4174999999999995 0.8835000000000000 4.4174999999999995 C
atom 5.3010000000000002 1.7669999999999999 3.5339999999999998 C
atom 6.1844999999999999 2.6505000000000001 4.4174999999999995 C
atom 7.0679999999999996 3.5339999999999998 3.5339999999999998 C
atom 7.9514999999999993 4.4174999999999995 4.4174999999999995 C
atom 0.0000000000000000 1.7669999999999999 1.7669999999999999 C
atom 0.8835000000000000 2.6505000000000001 2.6505000000000001 C
atom 1.7669999999999999 3.5339999999999998 1.7669999999999999 C
atom 2.6505000000000001 4.4174999999999995 2.6505000000000001 C
atom 3.5339999999999998 5.3010000000000002 1.7669999999999999 C
atom 4.4174999999999995 6.1844999999999999 2.6505000000000001 C
atom 1.7669999999999999 1.7669999999999999 3.5339999999999998 C
atom 2.6505000000000001 2.6505000000000001 4.4174999999999995 C
atom 3.5339999999999998 3.5339999999999998 3.5339999999999998 C
atom 4.4174999999999995 4.4174999999999995 4.4174999999999995 C
atom 5.3010000000000002 5.3010000000000002 3.5339999999999998 C
atom 6.1844999999999999 6.1844999999999999 4.4174999999999995 C
atom 3.5339999999999998 1.7669999999999999 5.3010000000000002 C
atom 4.4174999999999995 2.6505000000000001 6.1844999999999999 C
atom 5.3010000000000002 3.5339999999999998 5.3010000000000002 C
atom 6.1844999999999999 4.4174999999999995 6.1844999999999999 C
atom 7.0679999999999996 5.3010000000000002 5.3010000000000002 C
atom 7.9514999999999993 6.1844999999999999 6.1844999999999999 C
atom 0.0000000000000000 3.5339999999999998 3.5339999999999998 C
atom 0.8835000000000000 4.4174999999999995 4.4174999999999995 C
atom 1.7669999999999999 5.3010000000000002 3.5339999999999998 C
atom 2.6505000000000001 6.1844999999999999 4.4174999999999995 C
atom 3.5339999999999998 7.0679999999999996 3.5339999999999998 C
atom 4.4174999999999995 7.9514999999999993 4.4174999999999995 C
atom 1.7669999999999999 3.5339999999999998 5.3010000000000002 C
atom 2.6505000000000001 4.4174999999999995 6.1844999999999999 C
atom 3.5339999999999998 5.3010000000000002 5.3010000000000002 C
atom 4.4174999999999995 6.1844999999999999 6.1844999999999999 C
atom 5.3010000000000002 7.0679999999999996 5.3010000000000002 C
atom 6.1844999999999999 7.9514999999999993 6.1844999999999999 C
atom 3.5339999999999998 3.5339999999999998 7.0679999999999996 C
atom 4.4174999999999995 4.4174999999999995 7.9514999999999993 C
atom 5.3010000000000002 5.3010000000000002 7.0679999999999996 C
atom 6.1844999999999999 6.1844999999999999 7.9514999999999993 C
atom 7.0679999999999996 7.0679999999999996 7.0679999999999996 C
atom 7.9514999999999993 7.9514999999999993 7.9514999999999993 C
