#=======================================================
#FHI-aims file: /home/ziletti/PycharmProjects/nomadml/tests/tmp_folder/CmenrFglDQWoTWLNvVVobyI3dmkIe_op_0_aims.in
#Created using the Atomic Simulation Environment (ASE)
#=======================================================
lattice_vector 0.0000000000000000 10.6560000000000006 10.6560000000000006 
lattice_vector 10.6560000000000006 0.0000000000000000 10.6560000000000006 
lattice_vector 10.6560000000000006 10.6560000000000006 0.0000000000000000 
atom 0.0000000000000000 0.0000000000000000 0.0000000000000000 Rb
atom 3.5520000000000000 3.5520000000000000 3.5520000000000000 I
atom 3.5520000000000000 3.5520000000000000 0.0000000000000000 Rb
atom 7.1040000000000001 7.1040000000000001 3.5520000000000000 I
atom 7.1040000000000001 7.1040000000000001 0.0000000000000000 Rb
atom 10.6560000000000006 10.6560000000000006 3.5520000000000000 I
atom 3.5520000000000000 0.0000000000000000 3.5520000000000000 Rb
atom 7.1040000000000001 3.5520000000000000 7.1040000000000001 I
atom 7.1040000000000001 3.5520000000000000 3.5520000000000000 Rb
atom 10.6560000000000006 7.1040000000000001 7.1040000000000001 I
atom 10.6560000000000006 7.1040000000000001 3.5520000000000000 Rb
atom 14.2080000000000002 10.6560000000000006 7.1040000000000001 I
atom 7.1040000000000001 0.0000000000000000 7.1040000000000001 Rb
atom 10.6560000000000006 3.5520000000000000 10.6560000000000006 I
atom 10.6560000000000006 3.5520000000000000 7.1040000000000001 Rb
atom 14.2080000000000002 7.1040000000000001 10.6560000000000006 I
atom 14.2080000000000002 7.1040000000000001 7.1040000000000001 Rb
atom 17.7600000000000016 10.6560000000000006 10.6560000000000006 I
atom 0.0000000000000000 3.5520000000000000 3.5520000000000000 Rb
atom 3.5520000000000000 7.1040000000000001 7.1040000000000001 I
atom 3.5520000000000000 7.1040000000000001 3.5520000000000000 Rb
atom 7.1040000000000001 10.6560000000000006 7.1040000000000001 I
atom 7.1040000000000001 10.6560000000000006 3.5520000000000000 Rb
atom 10.6560000000000006 14.2080000000000002 7.1040000000000001 I
atom 3.5520000000000000 3.5520000000000000 7.1040000000000001 Rb
atom 7.1040000000000001 7.1040000000000001 10.6560000000000006 I
atom 7.1040000000000001 7.1040000000000001 7.1040000000000001 Rb
atom 10.6560000000000006 10.6560000000000006 10.6560000000000006 I
atom 10.6560000000000006 10.6560000000000006 7.1040000000000001 Rb
atom 14.2080000000000002 14.2080000000000002 10.6560000000000006 I
atom 7.1040000000000001 3.5520000000000000 10.6560000000000006 Rb
atom 10.6560000000000006 7.1040000000000001 14.2080000000000002 I
atom 10.6560000000000006 7.1040000000000001 10.6560000000000006 Rb
atom 14.2080000000000002 10.6560000000000006 14.2080000000000002 I
atom 14.2080000000000002 10.6560000000000006 10.6560000000000006 Rb
atom 17.7600000000000016 14.2080000000000002 14.2080000000000002 I
atom 0.0000000000000000 7.1040000000000001 7.1040000000000001 Rb
atom 3.5520000000000000 10.6560000000000006 10.6560000000000006 I
atom 3.5520000000000000 10.6560000000000006 7.1040000000000001 Rb
atom 7.1040000000000001 14.2080000000000002 10.6560000000000006 I
atom 7.1040000000000001 14.2080000000000002 7.1040000000000001 Rb
atom 10.6560000000000006 17.7600000000000016 10.6560000000000006 I
atom 3.5520000000000000 7.1040000000000001 10.6560000000000006 Rb
atom 7.1040000000000001 10.6560000000000006 14.2080000000000002 I
atom 7.1040000000000001 10.6560000000000006 10.6560000000000006 Rb
atom 10.6560000000000006 14.2080000000000002 14.2080000000000002 I
atom 10.6560000000000006 14.2080000000000002 10.6560000000000006 Rb
atom 14.2080000000000002 17.7600000000000016 14.2080000000000002 I
atom 7.1040000000000001 7.1040000000000001 14.2080000000000002 Rb
atom 10.6560000000000006 10.6560000000000006 17.7600000000000016 I
atom 10.6560000000000006 10.6560000000000006 14.2080000000000002 Rb
atom 14.2080000000000002 14.2080000000000002 17.7600000000000016 I
atom 14.2080000000000002 14.2080000000000002 14.2080000000000002 Rb
atom 17.7600000000000016 17.7600000000000016 17.7600000000000016 I
