#=======================================================
#FHI-aims file: /home/ziletti/PycharmProjects/nomadml/tests/tmp_folder/CmILc9BsSYjJ9OKH4MkPr0D4LGYGC_op_0_aims.in
#Created using the Atomic Simulation Environment (ASE)
#=======================================================
lattice_vector 0.0000000000000000 6.5175000000000001 6.5175000000000001 
lattice_vector 6.5175000000000001 0.0000000000000000 6.5175000000000001 
lattice_vector 6.5175000000000001 6.5175000000000001 0.0000000000000000 
atom 0.0000000000000000 0.0000000000000000 0.0000000000000000 Al
atom 1.0862499999999999 1.0862499999999999 1.0862499999999999 N
atom 2.1724999999999999 2.1724999999999999 0.0000000000000000 Al
atom 3.2587500000000000 3.2587500000000000 1.0862499999999999 N
atom 4.3449999999999998 4.3449999999999998 0.0000000000000000 Al
atom 5.4312499999999995 5.4312499999999995 1.0862499999999999 N
atom 2.1724999999999999 0.0000000000000000 2.1724999999999999 Al
atom 3.2587500000000000 1.0862499999999999 3.2587500000000000 N
atom 4.3449999999999998 2.1724999999999999 2.1724999999999999 Al
atom 5.4312499999999995 3.2587500000000000 3.2587500000000000 N
atom 6.5175000000000001 4.3449999999999998 2.1724999999999999 Al
atom 7.6037499999999998 5.4312499999999995 3.2587500000000000 N
atom 4.3449999999999998 0.0000000000000000 4.3449999999999998 Al
atom 5.4312499999999995 1.0862499999999999 5.4312499999999995 N
atom 6.5175000000000001 2.1724999999999999 4.3449999999999998 Al
atom 7.6037499999999998 3.2587500000000000 5.4312499999999995 N
atom 8.6899999999999995 4.3449999999999998 4.3449999999999998 Al
atom 9.7762499999999992 5.4312499999999995 5.4312499999999995 N
atom 0.0000000000000000 2.1724999999999999 2.1724999999999999 Al
atom 1.0862499999999999 3.2587500000000000 3.2587500000000000 N
atom 2.1724999999999999 4.3449999999999998 2.1724999999999999 Al
atom 3.2587500000000000 5.4312499999999995 3.2587500000000000 N
atom 4.3449999999999998 6.5175000000000001 2.1724999999999999 Al
atom 5.4312499999999995 7.6037499999999998 3.2587500000000000 N
atom 2.1724999999999999 2.1724999999999999 4.3449999999999998 Al
atom 3.2587500000000000 3.2587500000000000 5.4312499999999995 N
atom 4.3449999999999998 4.3449999999999998 4.3449999999999998 Al
atom 5.4312499999999995 5.4312499999999995 5.4312499999999995 N
atom 6.5175000000000001 6.5175000000000001 4.3449999999999998 Al
atom 7.6037499999999998 7.6037499999999998 5.4312499999999995 N
atom 4.3449999999999998 2.1724999999999999 6.5175000000000001 Al
atom 5.4312499999999995 3.2587500000000000 7.6037499999999998 N
atom 6.5175000000000001 4.3449999999999998 6.5175000000000001 Al
atom 7.6037499999999998 5.4312499999999995 7.6037499999999998 N
atom 8.6899999999999995 6.5175000000000001 6.5175000000000001 Al
atom 9.7762499999999992 7.6037499999999998 7.6037499999999998 N
atom 0.0000000000000000 4.3449999999999998 4.3449999999999998 Al
atom 1.0862499999999999 5.4312499999999995 5.4312499999999995 N
atom 2.1724999999999999 6.5175000000000001 4.3449999999999998 Al
atom 3.2587500000000000 7.6037499999999998 5.4312499999999995 N
atom 4.3449999999999998 8.6899999999999995 4.3449999999999998 Al
atom 5.4312499999999995 9.7762499999999992 5.4312499999999995 N
atom 2.1724999999999999 4.3449999999999998 6.5175000000000001 Al
atom 3.2587500000000000 5.4312499999999995 7.6037499999999998 N
atom 4.3449999999999998 6.5175000000000001 6.5175000000000001 Al
atom 5.4312499999999995 7.6037499999999998 7.6037499999999998 N
atom 6.5175000000000001 8.6899999999999995 6.5175000000000001 Al
atom 7.6037499999999998 9.7762499999999992 7.6037499999999998 N
atom 4.3449999999999998 4.3449999999999998 8.6899999999999995 Al
atom 5.4312499999999995 5.4312499999999995 9.7762499999999992 N
atom 6.5175000000000001 6.5175000000000001 8.6899999999999995 Al
atom 7.6037499999999998 7.6037499999999998 9.7762499999999992 N
atom 8.6899999999999995 8.6899999999999995 8.6899999999999995 Al
atom 9.7762499999999992 9.7762499999999992 9.7762499999999992 N
