#=======================================================
#FHI-aims file: /home/ziletti/PycharmProjects/nomadml/tests/tmp_folder/CmmsPJ6ouZjFnoIdGfis_3AHs9clP_op_0_aims.in
#Created using the Atomic Simulation Environment (ASE)
#=======================================================
lattice_vector 0.0000000000000000 11.1810000000000009 11.1810000000000009 
lattice_vector 11.1810000000000009 0.0000000000000000 11.1810000000000009 
lattice_vector 11.1810000000000009 11.1810000000000009 0.0000000000000000 
atom 0.0000000000000000 0.0000000000000000 0.0000000000000000 Cs
atom 3.7270000000000003 3.7270000000000003 3.7270000000000003 I
atom 3.7270000000000003 3.7270000000000003 0.0000000000000000 Cs
atom 7.4540000000000006 7.4540000000000006 3.7270000000000003 I
atom 7.4540000000000006 7.4540000000000006 0.0000000000000000 Cs
atom 11.1810000000000009 11.1810000000000009 3.7270000000000003 I
atom 3.7270000000000003 0.0000000000000000 3.7270000000000003 Cs
atom 7.4540000000000006 3.7270000000000003 7.4540000000000006 I
atom 7.4540000000000006 3.7270000000000003 3.7270000000000003 Cs
atom 11.1810000000000009 7.4540000000000006 7.4540000000000006 I
atom 11.1810000000000009 7.4540000000000006 3.7270000000000003 Cs
atom 14.9080000000000013 11.1810000000000009 7.4540000000000006 I
atom 7.4540000000000006 0.0000000000000000 7.4540000000000006 Cs
atom 11.1810000000000009 3.7270000000000003 11.1810000000000009 I
atom 11.1810000000000009 3.7270000000000003 7.4540000000000006 Cs
atom 14.9080000000000013 7.4540000000000006 11.1810000000000009 I
atom 14.9080000000000013 7.4540000000000006 7.4540000000000006 Cs
atom 18.6350000000000016 11.1810000000000009 11.1810000000000009 I
atom 0.0000000000000000 3.7270000000000003 3.7270000000000003 Cs
atom 3.7270000000000003 7.4540000000000006 7.4540000000000006 I
atom 3.7270000000000003 7.4540000000000006 3.7270000000000003 Cs
atom 7.4540000000000006 11.1810000000000009 7.4540000000000006 I
atom 7.4540000000000006 11.1810000000000009 3.7270000000000003 Cs
atom 11.1810000000000009 14.9080000000000013 7.4540000000000006 I
atom 3.7270000000000003 3.7270000000000003 7.4540000000000006 Cs
atom 7.4540000000000006 7.4540000000000006 11.1810000000000009 I
atom 7.4540000000000006 7.4540000000000006 7.4540000000000006 Cs
atom 11.1810000000000009 11.1810000000000009 11.1810000000000009 I
atom 11.1810000000000009 11.1810000000000009 7.4540000000000006 Cs
atom 14.9080000000000013 14.9080000000000013 11.1810000000000009 I
atom 7.4540000000000006 3.7270000000000003 11.1810000000000009 Cs
atom 11.1810000000000009 7.4540000000000006 14.9080000000000013 I
atom 11.1810000000000009 7.4540000000000006 11.1810000000000009 Cs
atom 14.9080000000000013 11.1810000000000009 14.9080000000000013 I
atom 14.9080000000000013 11.1810000000000009 11.1810000000000009 Cs
atom 18.6350000000000016 14.9080000000000013 14.9080000000000013 I
atom 0.0000000000000000 7.4540000000000006 7.4540000000000006 Cs
atom 3.7270000000000003 11.1810000000000009 11.1810000000000009 I
atom 3.7270000000000003 11.1810000000000009 7.4540000000000006 Cs
atom 7.4540000000000006 14.9080000000000013 11.1810000000000009 I
atom 7.4540000000000006 14.9080000000000013 7.4540000000000006 Cs
atom 11.1810000000000009 18.6350000000000016 11.1810000000000009 I
atom 3.7270000000000003 7.4540000000000006 11.1810000000000009 Cs
atom 7.4540000000000006 11.1810000000000009 14.9080000000000013 I
atom 7.4540000000000006 11.1810000000000009 11.1810000000000009 Cs
atom 11.1810000000000009 14.9080000000000013 14.9080000000000013 I
atom 11.1810000000000009 14.9080000000000013 11.1810000000000009 Cs
atom 14.9080000000000013 18.6350000000000016 14.9080000000000013 I
atom 7.4540000000000006 7.4540000000000006 14.9080000000000013 Cs
atom 11.1810000000000009 11.1810000000000009 18.6350000000000016 I
atom 11.1810000000000009 11.1810000000000009 14.9080000000000013 Cs
atom 14.9080000000000013 14.9080000000000013 18.6350000000000016 I
atom 14.9080000000000013 14.9080000000000013 14.9080000000000013 Cs
atom 18.6350000000000016 18.6350000000000016 18.6350000000000016 I
