#=======================================================
#FHI-aims file: /home/ziletti/PycharmProjects/nomadml/tests/tmp_folder/CMxYGoRCMDXQWrNytWJHc-vUgRKTT_op_0_aims.in
#Created using the Atomic Simulation Environment (ASE)
#=======================================================
lattice_vector 0.0000000000000000 6.7965000000000000 6.7965000000000000 
lattice_vector 6.7965000000000000 0.0000000000000000 6.7965000000000000 
lattice_vector 6.7965000000000000 6.7965000000000000 0.0000000000000000 
atom 0.0000000000000000 0.0000000000000000 0.0000000000000000 Ge
atom 1.1327499999999999 1.1327499999999999 1.1327499999999999 C
atom 2.2654999999999998 2.2654999999999998 0.0000000000000000 Ge
atom 3.3982500000000000 3.3982500000000000 1.1327499999999999 C
atom 4.5309999999999997 4.5309999999999997 0.0000000000000000 Ge
atom 5.6637499999999994 5.6637499999999994 1.1327499999999999 C
atom 2.2654999999999998 0.0000000000000000 2.2654999999999998 Ge
atom 3.3982500000000000 1.1327499999999999 3.3982500000000000 C
atom 4.5309999999999997 2.2654999999999998 2.2654999999999998 Ge
atom 5.6637499999999994 3.3982500000000000 3.3982500000000000 C
atom 6.7965000000000000 4.5309999999999997 2.2654999999999998 Ge
atom 7.9292499999999997 5.6637499999999994 3.3982500000000000 C
atom 4.5309999999999997 0.0000000000000000 4.5309999999999997 Ge
atom 5.6637499999999994 1.1327499999999999 5.6637499999999994 C
atom 6.7965000000000000 2.2654999999999998 4.5309999999999997 Ge
atom 7.9292499999999997 3.3982500000000000 5.6637499999999994 C
atom 9.0619999999999994 4.5309999999999997 4.5309999999999997 Ge
atom 10.1947499999999991 5.6637499999999994 5.6637499999999994 C
atom 0.0000000000000000 2.2654999999999998 2.2654999999999998 Ge
atom 1.1327499999999999 3.3982500000000000 3.3982500000000000 C
atom 2.2654999999999998 4.5309999999999997 2.2654999999999998 Ge
atom 3.3982500000000000 5.6637499999999994 3.3982500000000000 C
atom 4.5309999999999997 6.7965000000000000 2.2654999999999998 Ge
atom 5.6637499999999994 7.9292499999999997 3.3982500000000000 C
atom 2.2654999999999998 2.2654999999999998 4.5309999999999997 Ge
atom 3.3982500000000000 3.3982500000000000 5.6637499999999994 C
atom 4.5309999999999997 4.5309999999999997 4.5309999999999997 Ge
atom 5.6637499999999994 5.6637499999999994 5.6637499999999994 C
atom 6.7965000000000000 6.7965000000000000 4.5309999999999997 Ge
atom 7.9292499999999997 7.9292499999999997 5.6637499999999994 C
atom 4.5309999999999997 2.2654999999999998 6.7965000000000000 Ge
atom 5.6637499999999994 3.3982500000000000 7.9292499999999997 C
atom 6.7965000000000000 4.5309999999999997 6.7965000000000000 Ge
atom 7.9292499999999997 5.6637499999999994 7.9292499999999997 C
atom 9.0619999999999994 6.7965000000000000 6.7965000000000000 Ge
atom 10.1947499999999991 7.9292499999999997 7.9292499999999997 C
atom 0.0000000000000000 4.5309999999999997 4.5309999999999997 Ge
atom 1.1327499999999999 5.6637499999999994 5.6637499999999994 C
atom 2.2654999999999998 6.7965000000000000 4.5309999999999997 Ge
atom 3.3982500000000000 7.9292499999999997 5.6637499999999994 C
atom 4.5309999999999997 9.0619999999999994 4.5309999999999997 Ge
atom 5.6637499999999994 10.1947499999999991 5.6637499999999994 C
atom 2.2654999999999998 4.5309999999999997 6.7965000000000000 Ge
atom 3.3982500000000000 5.6637499999999994 7.9292499999999997 C
atom 4.5309999999999997 6.7965000000000000 6.7965000000000000 Ge
atom 5.6637499999999994 7.9292499999999997 7.9292499999999997 C
atom 6.7965000000000000 9.0619999999999994 6.7965000000000000 Ge
atom 7.9292499999999997 10.1947499999999991 7.9292499999999997 C
atom 4.5309999999999997 4.5309999999999997 9.0619999999999994 Ge
atom 5.6637499999999994 5.6637499999999994 10.1947499999999991 C
atom 6.7965000000000000 6.7965000000000000 9.0619999999999994 Ge
atom 7.9292499999999997 7.9292499999999997 10.1947499999999991 C
atom 9.0619999999999994 9.0619999999999994 9.0619999999999994 Ge
atom 10.1947499999999991 10.1947499999999991 10.1947499999999991 C
