#=======================================================
#FHI-aims file: /home/ziletti/PycharmProjects/nomadml/tests/tmp_folder/CNavIaZhgwAeZM0-QhWHe_38iUgEF_op_0_aims.in
#Created using the Atomic Simulation Environment (ASE)
#=======================================================
lattice_vector 0.0000000000000000 7.7790000000000017 7.7790000000000017 
lattice_vector 7.7790000000000017 0.0000000000000000 7.7790000000000017 
lattice_vector 7.7790000000000017 7.7790000000000017 0.0000000000000000 
atom 0.0000000000000000 0.0000000000000000 0.0000000000000000 B
atom 1.2965000000000002 1.2965000000000002 1.2965000000000002 Sb
atom 2.5930000000000004 2.5930000000000004 0.0000000000000000 B
atom 3.8895000000000008 3.8895000000000008 1.2965000000000002 Sb
atom 5.1860000000000008 5.1860000000000008 0.0000000000000000 B
atom 6.4825000000000008 6.4825000000000008 1.2965000000000002 Sb
atom 2.5930000000000004 0.0000000000000000 2.5930000000000004 B
atom 3.8895000000000008 1.2965000000000002 3.8895000000000008 Sb
atom 5.1860000000000008 2.5930000000000004 2.5930000000000004 B
atom 6.4825000000000008 3.8895000000000008 3.8895000000000008 Sb
atom 7.7790000000000017 5.1860000000000008 2.5930000000000004 B
atom 9.0755000000000017 6.4825000000000008 3.8895000000000008 Sb
atom 5.1860000000000008 0.0000000000000000 5.1860000000000008 B
atom 6.4825000000000008 1.2965000000000002 6.4825000000000008 Sb
atom 7.7790000000000017 2.5930000000000004 5.1860000000000008 B
atom 9.0755000000000017 3.8895000000000008 6.4825000000000008 Sb
atom 10.3720000000000017 5.1860000000000008 5.1860000000000008 B
atom 11.6685000000000016 6.4825000000000008 6.4825000000000008 Sb
atom 0.0000000000000000 2.5930000000000004 2.5930000000000004 B
atom 1.2965000000000002 3.8895000000000008 3.8895000000000008 Sb
atom 2.5930000000000004 5.1860000000000008 2.5930000000000004 B
atom 3.8895000000000008 6.4825000000000008 3.8895000000000008 Sb
atom 5.1860000000000008 7.7790000000000017 2.5930000000000004 B
atom 6.4825000000000008 9.0755000000000017 3.8895000000000008 Sb
atom 2.5930000000000004 2.5930000000000004 5.1860000000000008 B
atom 3.8895000000000008 3.8895000000000008 6.4825000000000008 Sb
atom 5.1860000000000008 5.1860000000000008 5.1860000000000008 B
atom 6.4825000000000008 6.4825000000000008 6.4825000000000008 Sb
atom 7.7790000000000017 7.7790000000000017 5.1860000000000008 B
atom 9.0755000000000017 9.0755000000000017 6.4825000000000008 Sb
atom 5.1860000000000008 2.5930000000000004 7.7790000000000017 B
atom 6.4825000000000008 3.8895000000000008 9.0755000000000017 Sb
atom 7.7790000000000017 5.1860000000000008 7.7790000000000017 B
atom 9.0755000000000017 6.4825000000000008 9.0755000000000017 Sb
atom 10.3720000000000017 7.7790000000000017 7.7790000000000017 B
atom 11.6685000000000016 9.0755000000000017 9.0755000000000017 Sb
atom 0.0000000000000000 5.1860000000000008 5.1860000000000008 B
atom 1.2965000000000002 6.4825000000000008 6.4825000000000008 Sb
atom 2.5930000000000004 7.7790000000000017 5.1860000000000008 B
atom 3.8895000000000008 9.0755000000000017 6.4825000000000008 Sb
atom 5.1860000000000008 10.3720000000000017 5.1860000000000008 B
atom 6.4825000000000008 11.6685000000000016 6.4825000000000008 Sb
atom 2.5930000000000004 5.1860000000000008 7.7790000000000017 B
atom 3.8895000000000008 6.4825000000000008 9.0755000000000017 Sb
atom 5.1860000000000008 7.7790000000000017 7.7790000000000017 B
atom 6.4825000000000008 9.0755000000000017 9.0755000000000017 Sb
atom 7.7790000000000017 10.3720000000000017 7.7790000000000017 B
atom 9.0755000000000017 11.6685000000000016 9.0755000000000017 Sb
atom 5.1860000000000008 5.1860000000000008 10.3720000000000017 B
atom 6.4825000000000008 6.4825000000000008 11.6685000000000016 Sb
atom 7.7790000000000017 7.7790000000000017 10.3720000000000017 B
atom 9.0755000000000017 9.0755000000000017 11.6685000000000016 Sb
atom 10.3720000000000017 10.3720000000000017 10.3720000000000017 B
atom 11.6685000000000016 11.6685000000000016 11.6685000000000016 Sb
