#=======================================================
#FHI-aims file: /home/ziletti/PycharmProjects/nomadml/tests/tmp_folder/CNXyczNslCGZT642R9ZFYGvidFvua_op_0_aims.in
#Created using the Atomic Simulation Environment (ASE)
#=======================================================
lattice_vector 0.0000000000000000 6.6899999999999995 6.6899999999999995 
lattice_vector 6.6899999999999995 0.0000000000000000 6.6899999999999995 
lattice_vector 6.6899999999999995 6.6899999999999995 0.0000000000000000 
atom 0.0000000000000000 0.0000000000000000 0.0000000000000000 Ga
atom 1.1150000000000000 1.1150000000000000 1.1150000000000000 N
atom 2.2300000000000000 2.2300000000000000 0.0000000000000000 Ga
atom 3.3449999999999998 3.3449999999999998 1.1150000000000000 N
atom 4.4600000000000000 4.4600000000000000 0.0000000000000000 Ga
atom 5.5750000000000002 5.5750000000000002 1.1150000000000000 N
atom 2.2300000000000000 0.0000000000000000 2.2300000000000000 Ga
atom 3.3449999999999998 1.1150000000000000 3.3449999999999998 N
atom 4.4600000000000000 2.2300000000000000 2.2300000000000000 Ga
atom 5.5750000000000002 3.3449999999999998 3.3449999999999998 N
atom 6.6899999999999995 4.4600000000000000 2.2300000000000000 Ga
atom 7.8049999999999997 5.5750000000000002 3.3449999999999998 N
atom 4.4600000000000000 0.0000000000000000 4.4600000000000000 Ga
atom 5.5750000000000002 1.1150000000000000 5.5750000000000002 N
atom 6.6899999999999995 2.2300000000000000 4.4600000000000000 Ga
atom 7.8049999999999997 3.3449999999999998 5.5750000000000002 N
atom 8.9199999999999999 4.4600000000000000 4.4600000000000000 Ga
atom 10.0350000000000001 5.5750000000000002 5.5750000000000002 N
atom 0.0000000000000000 2.2300000000000000 2.2300000000000000 Ga
atom 1.1150000000000000 3.3449999999999998 3.3449999999999998 N
atom 2.2300000000000000 4.4600000000000000 2.2300000000000000 Ga
atom 3.3449999999999998 5.5750000000000002 3.3449999999999998 N
atom 4.4600000000000000 6.6899999999999995 2.2300000000000000 Ga
atom 5.5750000000000002 7.8049999999999997 3.3449999999999998 N
atom 2.2300000000000000 2.2300000000000000 4.4600000000000000 Ga
atom 3.3449999999999998 3.3449999999999998 5.5750000000000002 N
atom 4.4600000000000000 4.4600000000000000 4.4600000000000000 Ga
atom 5.5750000000000002 5.5750000000000002 5.5750000000000002 N
atom 6.6899999999999995 6.6899999999999995 4.4600000000000000 Ga
atom 7.8049999999999997 7.8049999999999997 5.5750000000000002 N
atom 4.4600000000000000 2.2300000000000000 6.6899999999999995 Ga
atom 5.5750000000000002 3.3449999999999998 7.8049999999999997 N
atom 6.6899999999999995 4.4600000000000000 6.6899999999999995 Ga
atom 7.8049999999999997 5.5750000000000002 7.8049999999999997 N
atom 8.9199999999999999 6.6899999999999995 6.6899999999999995 Ga
atom 10.0350000000000001 7.8049999999999997 7.8049999999999997 N
atom 0.0000000000000000 4.4600000000000000 4.4600000000000000 Ga
atom 1.1150000000000000 5.5750000000000002 5.5750000000000002 N
atom 2.2300000000000000 6.6899999999999995 4.4600000000000000 Ga
atom 3.3449999999999998 7.8049999999999997 5.5750000000000002 N
atom 4.4600000000000000 8.9199999999999999 4.4600000000000000 Ga
atom 5.5750000000000002 10.0350000000000001 5.5750000000000002 N
atom 2.2300000000000000 4.4600000000000000 6.6899999999999995 Ga
atom 3.3449999999999998 5.5750000000000002 7.8049999999999997 N
atom 4.4600000000000000 6.6899999999999995 6.6899999999999995 Ga
atom 5.5750000000000002 7.8049999999999997 7.8049999999999997 N
atom 6.6899999999999995 8.9199999999999999 6.6899999999999995 Ga
atom 7.8049999999999997 10.0350000000000001 7.8049999999999997 N
atom 4.4600000000000000 4.4600000000000000 8.9199999999999999 Ga
atom 5.5750000000000002 5.5750000000000002 10.0350000000000001 N
atom 6.6899999999999995 6.6899999999999995 8.9199999999999999 Ga
atom 7.8049999999999997 7.8049999999999997 10.0350000000000001 N
atom 8.9199999999999999 8.9199999999999999 8.9199999999999999 Ga
atom 10.0350000000000001 10.0350000000000001 10.0350000000000001 N
