#=======================================================
#FHI-aims file: /home/ziletti/PycharmProjects/nomadml/tests/tmp_folder/COIYfYCEIron9yzowfHWhVea-VEFW_op_0_aims.in
#Created using the Atomic Simulation Environment (ASE)
#=======================================================
lattice_vector 0.0000000000000000 9.6209999999999987 9.6209999999999987 
lattice_vector 9.6209999999999987 0.0000000000000000 9.6209999999999987 
lattice_vector 9.6209999999999987 9.6209999999999987 0.0000000000000000 
atom 0.0000000000000000 0.0000000000000000 0.0000000000000000 Cd
atom 1.6034999999999999 1.6034999999999999 1.6034999999999999 Te
atom 3.2069999999999999 3.2069999999999999 0.0000000000000000 Cd
atom 4.8104999999999993 4.8104999999999993 1.6034999999999999 Te
atom 6.4139999999999997 6.4139999999999997 0.0000000000000000 Cd
atom 8.0175000000000001 8.0175000000000001 1.6034999999999999 Te
atom 3.2069999999999999 0.0000000000000000 3.2069999999999999 Cd
atom 4.8104999999999993 1.6034999999999999 4.8104999999999993 Te
atom 6.4139999999999997 3.2069999999999999 3.2069999999999999 Cd
atom 8.0175000000000001 4.8104999999999993 4.8104999999999993 Te
atom 9.6209999999999987 6.4139999999999997 3.2069999999999999 Cd
atom 11.2244999999999990 8.0175000000000001 4.8104999999999993 Te
atom 6.4139999999999997 0.0000000000000000 6.4139999999999997 Cd
atom 8.0175000000000001 1.6034999999999999 8.0175000000000001 Te
atom 9.6209999999999987 3.2069999999999999 6.4139999999999997 Cd
atom 11.2244999999999990 4.8104999999999993 8.0175000000000001 Te
atom 12.8279999999999994 6.4139999999999997 6.4139999999999997 Cd
atom 14.4314999999999998 8.0175000000000001 8.0175000000000001 Te
atom 0.0000000000000000 3.2069999999999999 3.2069999999999999 Cd
atom 1.6034999999999999 4.8104999999999993 4.8104999999999993 Te
atom 3.2069999999999999 6.4139999999999997 3.2069999999999999 Cd
atom 4.8104999999999993 8.0175000000000001 4.8104999999999993 Te
atom 6.4139999999999997 9.6209999999999987 3.2069999999999999 Cd
atom 8.0175000000000001 11.2244999999999990 4.8104999999999993 Te
atom 3.2069999999999999 3.2069999999999999 6.4139999999999997 Cd
atom 4.8104999999999993 4.8104999999999993 8.0175000000000001 Te
atom 6.4139999999999997 6.4139999999999997 6.4139999999999997 Cd
atom 8.0175000000000001 8.0175000000000001 8.0175000000000001 Te
atom 9.6209999999999987 9.6209999999999987 6.4139999999999997 Cd
atom 11.2244999999999990 11.2244999999999990 8.0175000000000001 Te
atom 6.4139999999999997 3.2069999999999999 9.6209999999999987 Cd
atom 8.0175000000000001 4.8104999999999993 11.2244999999999990 Te
atom 9.6209999999999987 6.4139999999999997 9.6209999999999987 Cd
atom 11.2244999999999990 8.0175000000000001 11.2244999999999990 Te
atom 12.8279999999999994 9.6209999999999987 9.6209999999999987 Cd
atom 14.4314999999999998 11.2244999999999990 11.2244999999999990 Te
atom 0.0000000000000000 6.4139999999999997 6.4139999999999997 Cd
atom 1.6034999999999999 8.0175000000000001 8.0175000000000001 Te
atom 3.2069999999999999 9.6209999999999987 6.4139999999999997 Cd
atom 4.8104999999999993 11.2244999999999990 8.0175000000000001 Te
atom 6.4139999999999997 12.8279999999999994 6.4139999999999997 Cd
atom 8.0175000000000001 14.4314999999999998 8.0175000000000001 Te
atom 3.2069999999999999 6.4139999999999997 9.6209999999999987 Cd
atom 4.8104999999999993 8.0175000000000001 11.2244999999999990 Te
atom 6.4139999999999997 9.6209999999999987 9.6209999999999987 Cd
atom 8.0175000000000001 11.2244999999999990 11.2244999999999990 Te
atom 9.6209999999999987 12.8279999999999994 9.6209999999999987 Cd
atom 11.2244999999999990 14.4314999999999998 11.2244999999999990 Te
atom 6.4139999999999997 6.4139999999999997 12.8279999999999994 Cd
atom 8.0175000000000001 8.0175000000000001 14.4314999999999998 Te
atom 9.6209999999999987 9.6209999999999987 12.8279999999999994 Cd
atom 11.2244999999999990 11.2244999999999990 14.4314999999999998 Te
atom 12.8279999999999994 12.8279999999999994 12.8279999999999994 Cd
atom 14.4314999999999998 14.4314999999999998 14.4314999999999998 Te
