#=======================================================
#FHI-aims file: /home/ziletti/PycharmProjects/nomadml/tests/tmp_folder/CoWlbXJuGJ4-22DclM15L_g44LN3P_op_0_aims.in
#Created using the Atomic Simulation Environment (ASE)
#=======================================================
lattice_vector 0.0000000000000000 9.0899999999999999 9.0899999999999999 
lattice_vector 9.0899999999999999 0.0000000000000000 9.0899999999999999 
lattice_vector 9.0899999999999999 9.0899999999999999 0.0000000000000000 
atom 0.0000000000000000 0.0000000000000000 0.0000000000000000 Sn
atom 1.5149999999999999 1.5149999999999999 1.5149999999999999 Ge
atom 3.0299999999999998 3.0299999999999998 0.0000000000000000 Sn
atom 4.5449999999999999 4.5449999999999999 1.5149999999999999 Ge
atom 6.0599999999999996 6.0599999999999996 0.0000000000000000 Sn
atom 7.5749999999999993 7.5749999999999993 1.5149999999999999 Ge
atom 3.0299999999999998 0.0000000000000000 3.0299999999999998 Sn
atom 4.5449999999999999 1.5149999999999999 4.5449999999999999 Ge
atom 6.0599999999999996 3.0299999999999998 3.0299999999999998 Sn
atom 7.5749999999999993 4.5449999999999999 4.5449999999999999 Ge
atom 9.0899999999999999 6.0599999999999996 3.0299999999999998 Sn
atom 10.6050000000000004 7.5749999999999993 4.5449999999999999 Ge
atom 6.0599999999999996 0.0000000000000000 6.0599999999999996 Sn
atom 7.5749999999999993 1.5149999999999999 7.5749999999999993 Ge
atom 9.0899999999999999 3.0299999999999998 6.0599999999999996 Sn
atom 10.6050000000000004 4.5449999999999999 7.5749999999999993 Ge
atom 12.1199999999999992 6.0599999999999996 6.0599999999999996 Sn
atom 13.6349999999999998 7.5749999999999993 7.5749999999999993 Ge
atom 0.0000000000000000 3.0299999999999998 3.0299999999999998 Sn
atom 1.5149999999999999 4.5449999999999999 4.5449999999999999 Ge
atom 3.0299999999999998 6.0599999999999996 3.0299999999999998 Sn
atom 4.5449999999999999 7.5749999999999993 4.5449999999999999 Ge
atom 6.0599999999999996 9.0899999999999999 3.0299999999999998 Sn
atom 7.5749999999999993 10.6050000000000004 4.5449999999999999 Ge
atom 3.0299999999999998 3.0299999999999998 6.0599999999999996 Sn
atom 4.5449999999999999 4.5449999999999999 7.5749999999999993 Ge
atom 6.0599999999999996 6.0599999999999996 6.0599999999999996 Sn
atom 7.5749999999999993 7.5749999999999993 7.5749999999999993 Ge
atom 9.0899999999999999 9.0899999999999999 6.0599999999999996 Sn
atom 10.6050000000000004 10.6050000000000004 7.5749999999999993 Ge
atom 6.0599999999999996 3.0299999999999998 9.0899999999999999 Sn
atom 7.5749999999999993 4.5449999999999999 10.6050000000000004 Ge
atom 9.0899999999999999 6.0599999999999996 9.0899999999999999 Sn
atom 10.6050000000000004 7.5749999999999993 10.6050000000000004 Ge
atom 12.1199999999999992 9.0899999999999999 9.0899999999999999 Sn
atom 13.6349999999999998 10.6050000000000004 10.6050000000000004 Ge
atom 0.0000000000000000 6.0599999999999996 6.0599999999999996 Sn
atom 1.5149999999999999 7.5749999999999993 7.5749999999999993 Ge
atom 3.0299999999999998 9.0899999999999999 6.0599999999999996 Sn
atom 4.5449999999999999 10.6050000000000004 7.5749999999999993 Ge
atom 6.0599999999999996 12.1199999999999992 6.0599999999999996 Sn
atom 7.5749999999999993 13.6349999999999998 7.5749999999999993 Ge
atom 3.0299999999999998 6.0599999999999996 9.0899999999999999 Sn
atom 4.5449999999999999 7.5749999999999993 10.6050000000000004 Ge
atom 6.0599999999999996 9.0899999999999999 9.0899999999999999 Sn
atom 7.5749999999999993 10.6050000000000004 10.6050000000000004 Ge
atom 9.0899999999999999 12.1199999999999992 9.0899999999999999 Sn
atom 10.6050000000000004 13.6349999999999998 10.6050000000000004 Ge
atom 6.0599999999999996 6.0599999999999996 12.1199999999999992 Sn
atom 7.5749999999999993 7.5749999999999993 13.6349999999999998 Ge
atom 9.0899999999999999 9.0899999999999999 12.1199999999999992 Sn
atom 10.6050000000000004 10.6050000000000004 13.6349999999999998 Ge
atom 12.1199999999999992 12.1199999999999992 12.1199999999999992 Sn
atom 13.6349999999999998 13.6349999999999998 13.6349999999999998 Ge
