#=======================================================
#FHI-aims file: /home/ziletti/PycharmProjects/nomadml/tests/tmp_folder/CpikjM2BVj1atNlsbkcJzK9TkUIox_op_0_aims.in
#Created using the Atomic Simulation Environment (ASE)
#=======================================================
lattice_vector 0.0000000000000000 8.4480000000000004 8.4480000000000004 
lattice_vector 8.4480000000000004 0.0000000000000000 8.4480000000000004 
lattice_vector 8.4480000000000004 8.4480000000000004 0.0000000000000000 
atom 0.0000000000000000 0.0000000000000000 0.0000000000000000 Al
atom 1.4079999999999999 1.4079999999999999 1.4079999999999999 As
atom 2.8159999999999998 2.8159999999999998 0.0000000000000000 Al
atom 4.2240000000000002 4.2240000000000002 1.4079999999999999 As
atom 5.6319999999999997 5.6319999999999997 0.0000000000000000 Al
atom 7.0399999999999991 7.0399999999999991 1.4079999999999999 As
atom 2.8159999999999998 0.0000000000000000 2.8159999999999998 Al
atom 4.2240000000000002 1.4079999999999999 4.2240000000000002 As
atom 5.6319999999999997 2.8159999999999998 2.8159999999999998 Al
atom 7.0399999999999991 4.2240000000000002 4.2240000000000002 As
atom 8.4480000000000004 5.6319999999999997 2.8159999999999998 Al
atom 9.8559999999999999 7.0399999999999991 4.2240000000000002 As
atom 5.6319999999999997 0.0000000000000000 5.6319999999999997 Al
atom 7.0399999999999991 1.4079999999999999 7.0399999999999991 As
atom 8.4480000000000004 2.8159999999999998 5.6319999999999997 Al
atom 9.8559999999999999 4.2240000000000002 7.0399999999999991 As
atom 11.2639999999999993 5.6319999999999997 5.6319999999999997 Al
atom 12.6719999999999988 7.0399999999999991 7.0399999999999991 As
atom 0.0000000000000000 2.8159999999999998 2.8159999999999998 Al
atom 1.4079999999999999 4.2240000000000002 4.2240000000000002 As
atom 2.8159999999999998 5.6319999999999997 2.8159999999999998 Al
atom 4.2240000000000002 7.0399999999999991 4.2240000000000002 As
atom 5.6319999999999997 8.4480000000000004 2.8159999999999998 Al
atom 7.0399999999999991 9.8559999999999999 4.2240000000000002 As
atom 2.8159999999999998 2.8159999999999998 5.6319999999999997 Al
atom 4.2240000000000002 4.2240000000000002 7.0399999999999991 As
atom 5.6319999999999997 5.6319999999999997 5.6319999999999997 Al
atom 7.0399999999999991 7.0399999999999991 7.0399999999999991 As
atom 8.4480000000000004 8.4480000000000004 5.6319999999999997 Al
atom 9.8559999999999999 9.8559999999999999 7.0399999999999991 As
atom 5.6319999999999997 2.8159999999999998 8.4480000000000004 Al
atom 7.0399999999999991 4.2240000000000002 9.8559999999999999 As
atom 8.4480000000000004 5.6319999999999997 8.4480000000000004 Al
atom 9.8559999999999999 7.0399999999999991 9.8559999999999999 As
atom 11.2639999999999993 8.4480000000000004 8.4480000000000004 Al
atom 12.6719999999999988 9.8559999999999999 9.8559999999999999 As
atom 0.0000000000000000 5.6319999999999997 5.6319999999999997 Al
atom 1.4079999999999999 7.0399999999999991 7.0399999999999991 As
atom 2.8159999999999998 8.4480000000000004 5.6319999999999997 Al
atom 4.2240000000000002 9.8559999999999999 7.0399999999999991 As
atom 5.6319999999999997 11.2639999999999993 5.6319999999999997 Al
atom 7.0399999999999991 12.6719999999999988 7.0399999999999991 As
atom 2.8159999999999998 5.6319999999999997 8.4480000000000004 Al
atom 4.2240000000000002 7.0399999999999991 9.8559999999999999 As
atom 5.6319999999999997 8.4480000000000004 8.4480000000000004 Al
atom 7.0399999999999991 9.8559999999999999 9.8559999999999999 As
atom 8.4480000000000004 11.2639999999999993 8.4480000000000004 Al
atom 9.8559999999999999 12.6719999999999988 9.8559999999999999 As
atom 5.6319999999999997 5.6319999999999997 11.2639999999999993 Al
atom 7.0399999999999991 7.0399999999999991 12.6719999999999988 As
atom 8.4480000000000004 8.4480000000000004 11.2639999999999993 Al
atom 9.8559999999999999 9.8559999999999999 12.6719999999999988 As
atom 11.2639999999999993 11.2639999999999993 11.2639999999999993 Al
atom 12.6719999999999988 12.6719999999999988 12.6719999999999988 As
