#=======================================================
#FHI-aims file: /home/ziletti/PycharmProjects/nomadml/tests/tmp_folder/CQB49fu8BN3kua7uLKQLlT5dWdHi0_op_0_aims.in
#Created using the Atomic Simulation Environment (ASE)
#=======================================================
lattice_vector 0.0000000000000000 8.1539999999999999 8.1539999999999999 
lattice_vector 8.1539999999999999 0.0000000000000000 8.1539999999999999 
lattice_vector 8.1539999999999999 8.1539999999999999 0.0000000000000000 
atom 0.0000000000000000 0.0000000000000000 0.0000000000000000 Ba
atom 2.7180000000000000 2.7180000000000000 2.7180000000000000 O
atom 2.7180000000000000 2.7180000000000000 0.0000000000000000 Ba
atom 5.4359999999999999 5.4359999999999999 2.7180000000000000 O
atom 5.4359999999999999 5.4359999999999999 0.0000000000000000 Ba
atom 8.1539999999999999 8.1539999999999999 2.7180000000000000 O
atom 2.7180000000000000 0.0000000000000000 2.7180000000000000 Ba
atom 5.4359999999999999 2.7180000000000000 5.4359999999999999 O
atom 5.4359999999999999 2.7180000000000000 2.7180000000000000 Ba
atom 8.1539999999999999 5.4359999999999999 5.4359999999999999 O
atom 8.1539999999999999 5.4359999999999999 2.7180000000000000 Ba
atom 10.8719999999999999 8.1539999999999999 5.4359999999999999 O
atom 5.4359999999999999 0.0000000000000000 5.4359999999999999 Ba
atom 8.1539999999999999 2.7180000000000000 8.1539999999999999 O
atom 8.1539999999999999 2.7180000000000000 5.4359999999999999 Ba
atom 10.8719999999999999 5.4359999999999999 8.1539999999999999 O
atom 10.8719999999999999 5.4359999999999999 5.4359999999999999 Ba
atom 13.5899999999999999 8.1539999999999999 8.1539999999999999 O
atom 0.0000000000000000 2.7180000000000000 2.7180000000000000 Ba
atom 2.7180000000000000 5.4359999999999999 5.4359999999999999 O
atom 2.7180000000000000 5.4359999999999999 2.7180000000000000 Ba
atom 5.4359999999999999 8.1539999999999999 5.4359999999999999 O
atom 5.4359999999999999 8.1539999999999999 2.7180000000000000 Ba
atom 8.1539999999999999 10.8719999999999999 5.4359999999999999 O
atom 2.7180000000000000 2.7180000000000000 5.4359999999999999 Ba
atom 5.4359999999999999 5.4359999999999999 8.1539999999999999 O
atom 5.4359999999999999 5.4359999999999999 5.4359999999999999 Ba
atom 8.1539999999999999 8.1539999999999999 8.1539999999999999 O
atom 8.1539999999999999 8.1539999999999999 5.4359999999999999 Ba
atom 10.8719999999999999 10.8719999999999999 8.1539999999999999 O
atom 5.4359999999999999 2.7180000000000000 8.1539999999999999 Ba
atom 8.1539999999999999 5.4359999999999999 10.8719999999999999 O
atom 8.1539999999999999 5.4359999999999999 8.1539999999999999 Ba
atom 10.8719999999999999 8.1539999999999999 10.8719999999999999 O
atom 10.8719999999999999 8.1539999999999999 8.1539999999999999 Ba
atom 13.5899999999999999 10.8719999999999999 10.8719999999999999 O
atom 0.0000000000000000 5.4359999999999999 5.4359999999999999 Ba
atom 2.7180000000000000 8.1539999999999999 8.1539999999999999 O
atom 2.7180000000000000 8.1539999999999999 5.4359999999999999 Ba
atom 5.4359999999999999 10.8719999999999999 8.1539999999999999 O
atom 5.4359999999999999 10.8719999999999999 5.4359999999999999 Ba
atom 8.1539999999999999 13.5899999999999999 8.1539999999999999 O
atom 2.7180000000000000 5.4359999999999999 8.1539999999999999 Ba
atom 5.4359999999999999 8.1539999999999999 10.8719999999999999 O
atom 5.4359999999999999 8.1539999999999999 8.1539999999999999 Ba
atom 8.1539999999999999 10.8719999999999999 10.8719999999999999 O
atom 8.1539999999999999 10.8719999999999999 8.1539999999999999 Ba
atom 10.8719999999999999 13.5899999999999999 10.8719999999999999 O
atom 5.4359999999999999 5.4359999999999999 10.8719999999999999 Ba
atom 8.1539999999999999 8.1539999999999999 13.5899999999999999 O
atom 8.1539999999999999 8.1539999999999999 10.8719999999999999 Ba
atom 10.8719999999999999 10.8719999999999999 13.5899999999999999 O
atom 10.8719999999999999 10.8719999999999999 10.8719999999999999 Ba
atom 13.5899999999999999 13.5899999999999999 13.5899999999999999 O
