#=======================================================
#FHI-aims file: /home/ziletti/PycharmProjects/nomadml/tests/tmp_folder/CQESlzgesuFywpq09x-vZ0gikcjPf_op_0_aims.in
#Created using the Atomic Simulation Environment (ASE)
#=======================================================
lattice_vector 0.0000000000000000 8.0924999999999994 8.0924999999999994 
lattice_vector 8.0924999999999994 0.0000000000000000 8.0924999999999994 
lattice_vector 8.0924999999999994 8.0924999999999994 0.0000000000000000 
atom 0.0000000000000000 0.0000000000000000 0.0000000000000000 Mg
atom 2.6974999999999998 2.6974999999999998 2.6974999999999998 Se
atom 2.6974999999999998 2.6974999999999998 0.0000000000000000 Mg
atom 5.3949999999999996 5.3949999999999996 2.6974999999999998 Se
atom 5.3949999999999996 5.3949999999999996 0.0000000000000000 Mg
atom 8.0924999999999994 8.0924999999999994 2.6974999999999998 Se
atom 2.6974999999999998 0.0000000000000000 2.6974999999999998 Mg
atom 5.3949999999999996 2.6974999999999998 5.3949999999999996 Se
atom 5.3949999999999996 2.6974999999999998 2.6974999999999998 Mg
atom 8.0924999999999994 5.3949999999999996 5.3949999999999996 Se
atom 8.0924999999999994 5.3949999999999996 2.6974999999999998 Mg
atom 10.7899999999999991 8.0924999999999994 5.3949999999999996 Se
atom 5.3949999999999996 0.0000000000000000 5.3949999999999996 Mg
atom 8.0924999999999994 2.6974999999999998 8.0924999999999994 Se
atom 8.0924999999999994 2.6974999999999998 5.3949999999999996 Mg
atom 10.7899999999999991 5.3949999999999996 8.0924999999999994 Se
atom 10.7899999999999991 5.3949999999999996 5.3949999999999996 Mg
atom 13.4874999999999989 8.0924999999999994 8.0924999999999994 Se
atom 0.0000000000000000 2.6974999999999998 2.6974999999999998 Mg
atom 2.6974999999999998 5.3949999999999996 5.3949999999999996 Se
atom 2.6974999999999998 5.3949999999999996 2.6974999999999998 Mg
atom 5.3949999999999996 8.0924999999999994 5.3949999999999996 Se
atom 5.3949999999999996 8.0924999999999994 2.6974999999999998 Mg
atom 8.0924999999999994 10.7899999999999991 5.3949999999999996 Se
atom 2.6974999999999998 2.6974999999999998 5.3949999999999996 Mg
atom 5.3949999999999996 5.3949999999999996 8.0924999999999994 Se
atom 5.3949999999999996 5.3949999999999996 5.3949999999999996 Mg
atom 8.0924999999999994 8.0924999999999994 8.0924999999999994 Se
atom 8.0924999999999994 8.0924999999999994 5.3949999999999996 Mg
atom 10.7899999999999991 10.7899999999999991 8.0924999999999994 Se
atom 5.3949999999999996 2.6974999999999998 8.0924999999999994 Mg
atom 8.0924999999999994 5.3949999999999996 10.7899999999999991 Se
atom 8.0924999999999994 5.3949999999999996 8.0924999999999994 Mg
atom 10.7899999999999991 8.0924999999999994 10.7899999999999991 Se
atom 10.7899999999999991 8.0924999999999994 8.0924999999999994 Mg
atom 13.4874999999999989 10.7899999999999991 10.7899999999999991 Se
atom 0.0000000000000000 5.3949999999999996 5.3949999999999996 Mg
atom 2.6974999999999998 8.0924999999999994 8.0924999999999994 Se
atom 2.6974999999999998 8.0924999999999994 5.3949999999999996 Mg
atom 5.3949999999999996 10.7899999999999991 8.0924999999999994 Se
atom 5.3949999999999996 10.7899999999999991 5.3949999999999996 Mg
atom 8.0924999999999994 13.4874999999999989 8.0924999999999994 Se
atom 2.6974999999999998 5.3949999999999996 8.0924999999999994 Mg
atom 5.3949999999999996 8.0924999999999994 10.7899999999999991 Se
atom 5.3949999999999996 8.0924999999999994 8.0924999999999994 Mg
atom 8.0924999999999994 10.7899999999999991 10.7899999999999991 Se
atom 8.0924999999999994 10.7899999999999991 8.0924999999999994 Mg
atom 10.7899999999999991 13.4874999999999989 10.7899999999999991 Se
atom 5.3949999999999996 5.3949999999999996 10.7899999999999991 Mg
atom 8.0924999999999994 8.0924999999999994 13.4874999999999989 Se
atom 8.0924999999999994 8.0924999999999994 10.7899999999999991 Mg
atom 10.7899999999999991 10.7899999999999991 13.4874999999999989 Se
atom 10.7899999999999991 10.7899999999999991 10.7899999999999991 Mg
atom 13.4874999999999989 13.4874999999999989 13.4874999999999989 Se
