#=======================================================
#FHI-aims file: /home/ziletti/PycharmProjects/nomadml/tests/tmp_folder/CQhb3_h4Bo9e5xjhhTUBY_8uOEtTM_op_0_aims.in
#Created using the Atomic Simulation Environment (ASE)
#=======================================================
lattice_vector 0.0000000000000000 8.4105000000000008 8.4105000000000008 
lattice_vector 8.4105000000000008 0.0000000000000000 8.4105000000000008 
lattice_vector 8.4105000000000008 8.4105000000000008 0.0000000000000000 
atom 0.0000000000000000 0.0000000000000000 0.0000000000000000 Ga
atom 1.4017500000000001 1.4017500000000001 1.4017500000000001 As
atom 2.8035000000000001 2.8035000000000001 0.0000000000000000 Ga
atom 4.2052500000000004 4.2052500000000004 1.4017500000000001 As
atom 5.6070000000000002 5.6070000000000002 0.0000000000000000 Ga
atom 7.0087500000000000 7.0087500000000000 1.4017500000000001 As
atom 2.8035000000000001 0.0000000000000000 2.8035000000000001 Ga
atom 4.2052500000000004 1.4017500000000001 4.2052500000000004 As
atom 5.6070000000000002 2.8035000000000001 2.8035000000000001 Ga
atom 7.0087500000000000 4.2052500000000004 4.2052500000000004 As
atom 8.4105000000000008 5.6070000000000002 2.8035000000000001 Ga
atom 9.8122500000000006 7.0087500000000000 4.2052500000000004 As
atom 5.6070000000000002 0.0000000000000000 5.6070000000000002 Ga
atom 7.0087500000000000 1.4017500000000001 7.0087500000000000 As
atom 8.4105000000000008 2.8035000000000001 5.6070000000000002 Ga
atom 9.8122500000000006 4.2052500000000004 7.0087500000000000 As
atom 11.2140000000000004 5.6070000000000002 5.6070000000000002 Ga
atom 12.6157500000000002 7.0087500000000000 7.0087500000000000 As
atom 0.0000000000000000 2.8035000000000001 2.8035000000000001 Ga
atom 1.4017500000000001 4.2052500000000004 4.2052500000000004 As
atom 2.8035000000000001 5.6070000000000002 2.8035000000000001 Ga
atom 4.2052500000000004 7.0087500000000000 4.2052500000000004 As
atom 5.6070000000000002 8.4105000000000008 2.8035000000000001 Ga
atom 7.0087500000000000 9.8122500000000006 4.2052500000000004 As
atom 2.8035000000000001 2.8035000000000001 5.6070000000000002 Ga
atom 4.2052500000000004 4.2052500000000004 7.0087500000000000 As
atom 5.6070000000000002 5.6070000000000002 5.6070000000000002 Ga
atom 7.0087500000000000 7.0087500000000000 7.0087500000000000 As
atom 8.4105000000000008 8.4105000000000008 5.6070000000000002 Ga
atom 9.8122500000000006 9.8122500000000006 7.0087500000000000 As
atom 5.6070000000000002 2.8035000000000001 8.4105000000000008 Ga
atom 7.0087500000000000 4.2052500000000004 9.8122500000000006 As
atom 8.4105000000000008 5.6070000000000002 8.4105000000000008 Ga
atom 9.8122500000000006 7.0087500000000000 9.8122500000000006 As
atom 11.2140000000000004 8.4105000000000008 8.4105000000000008 Ga
atom 12.6157500000000002 9.8122500000000006 9.8122500000000006 As
atom 0.0000000000000000 5.6070000000000002 5.6070000000000002 Ga
atom 1.4017500000000001 7.0087500000000000 7.0087500000000000 As
atom 2.8035000000000001 8.4105000000000008 5.6070000000000002 Ga
atom 4.2052500000000004 9.8122500000000006 7.0087500000000000 As
atom 5.6070000000000002 11.2140000000000004 5.6070000000000002 Ga
atom 7.0087500000000000 12.6157500000000002 7.0087500000000000 As
atom 2.8035000000000001 5.6070000000000002 8.4105000000000008 Ga
atom 4.2052500000000004 7.0087500000000000 9.8122500000000006 As
atom 5.6070000000000002 8.4105000000000008 8.4105000000000008 Ga
atom 7.0087500000000000 9.8122500000000006 9.8122500000000006 As
atom 8.4105000000000008 11.2140000000000004 8.4105000000000008 Ga
atom 9.8122500000000006 12.6157500000000002 9.8122500000000006 As
atom 5.6070000000000002 5.6070000000000002 11.2140000000000004 Ga
atom 7.0087500000000000 7.0087500000000000 12.6157500000000002 As
atom 8.4105000000000008 8.4105000000000008 11.2140000000000004 Ga
atom 9.8122500000000006 9.8122500000000006 12.6157500000000002 As
atom 11.2140000000000004 11.2140000000000004 11.2140000000000004 Ga
atom 12.6157500000000002 12.6157500000000002 12.6157500000000002 As
