#=======================================================
#FHI-aims file: /home/ziletti/PycharmProjects/nomadml/tests/tmp_folder/CqmzGiDuYJ-Q8j-KfLDlQBvWb2Gjt_op_0_aims.in
#Created using the Atomic Simulation Environment (ASE)
#=======================================================
lattice_vector 0.0000000000000000 10.5314999999999994 10.5314999999999994 
lattice_vector 10.5314999999999994 0.0000000000000000 10.5314999999999994 
lattice_vector 10.5314999999999994 10.5314999999999994 0.0000000000000000 
atom 0.0000000000000000 0.0000000000000000 0.0000000000000000 Cs
atom 3.5105000000000000 3.5105000000000000 3.5105000000000000 Br
atom 3.5105000000000000 3.5105000000000000 0.0000000000000000 Cs
atom 7.0209999999999999 7.0209999999999999 3.5105000000000000 Br
atom 7.0209999999999999 7.0209999999999999 0.0000000000000000 Cs
atom 10.5314999999999994 10.5314999999999994 3.5105000000000000 Br
atom 3.5105000000000000 0.0000000000000000 3.5105000000000000 Cs
atom 7.0209999999999999 3.5105000000000000 7.0209999999999999 Br
atom 7.0209999999999999 3.5105000000000000 3.5105000000000000 Cs
atom 10.5314999999999994 7.0209999999999999 7.0209999999999999 Br
atom 10.5314999999999994 7.0209999999999999 3.5105000000000000 Cs
atom 14.0419999999999998 10.5314999999999994 7.0209999999999999 Br
atom 7.0209999999999999 0.0000000000000000 7.0209999999999999 Cs
atom 10.5314999999999994 3.5105000000000000 10.5314999999999994 Br
atom 10.5314999999999994 3.5105000000000000 7.0209999999999999 Cs
atom 14.0419999999999998 7.0209999999999999 10.5314999999999994 Br
atom 14.0419999999999998 7.0209999999999999 7.0209999999999999 Cs
atom 17.5524999999999984 10.5314999999999994 10.5314999999999994 Br
atom 0.0000000000000000 3.5105000000000000 3.5105000000000000 Cs
atom 3.5105000000000000 7.0209999999999999 7.0209999999999999 Br
atom 3.5105000000000000 7.0209999999999999 3.5105000000000000 Cs
atom 7.0209999999999999 10.5314999999999994 7.0209999999999999 Br
atom 7.0209999999999999 10.5314999999999994 3.5105000000000000 Cs
atom 10.5314999999999994 14.0419999999999998 7.0209999999999999 Br
atom 3.5105000000000000 3.5105000000000000 7.0209999999999999 Cs
atom 7.0209999999999999 7.0209999999999999 10.5314999999999994 Br
atom 7.0209999999999999 7.0209999999999999 7.0209999999999999 Cs
atom 10.5314999999999994 10.5314999999999994 10.5314999999999994 Br
atom 10.5314999999999994 10.5314999999999994 7.0209999999999999 Cs
atom 14.0419999999999998 14.0419999999999998 10.5314999999999994 Br
atom 7.0209999999999999 3.5105000000000000 10.5314999999999994 Cs
atom 10.5314999999999994 7.0209999999999999 14.0419999999999998 Br
atom 10.5314999999999994 7.0209999999999999 10.5314999999999994 Cs
atom 14.0419999999999998 10.5314999999999994 14.0419999999999998 Br
atom 14.0419999999999998 10.5314999999999994 10.5314999999999994 Cs
atom 17.5524999999999984 14.0419999999999998 14.0419999999999998 Br
atom 0.0000000000000000 7.0209999999999999 7.0209999999999999 Cs
atom 3.5105000000000000 10.5314999999999994 10.5314999999999994 Br
atom 3.5105000000000000 10.5314999999999994 7.0209999999999999 Cs
atom 7.0209999999999999 14.0419999999999998 10.5314999999999994 Br
atom 7.0209999999999999 14.0419999999999998 7.0209999999999999 Cs
atom 10.5314999999999994 17.5524999999999984 10.5314999999999994 Br
atom 3.5105000000000000 7.0209999999999999 10.5314999999999994 Cs
atom 7.0209999999999999 10.5314999999999994 14.0419999999999998 Br
atom 7.0209999999999999 10.5314999999999994 10.5314999999999994 Cs
atom 10.5314999999999994 14.0419999999999998 14.0419999999999998 Br
atom 10.5314999999999994 14.0419999999999998 10.5314999999999994 Cs
atom 14.0419999999999998 17.5524999999999984 14.0419999999999998 Br
atom 7.0209999999999999 7.0209999999999999 14.0419999999999998 Cs
atom 10.5314999999999994 10.5314999999999994 17.5524999999999984 Br
atom 10.5314999999999994 10.5314999999999994 14.0419999999999998 Cs
atom 14.0419999999999998 14.0419999999999998 17.5524999999999984 Br
atom 14.0419999999999998 14.0419999999999998 14.0419999999999998 Cs
atom 17.5524999999999984 17.5524999999999984 17.5524999999999984 Br
