#=======================================================
#FHI-aims file: /home/ziletti/PycharmProjects/nomadml/tests/tmp_folder/Cr6E85ezTMa4WX-GTFoms6w0Rb0hT_op_0_aims.in
#Created using the Atomic Simulation Environment (ASE)
#=======================================================
lattice_vector 0.0000000000000000 5.3745000000000012 5.3745000000000012 
lattice_vector 5.3745000000000012 0.0000000000000000 5.3745000000000012 
lattice_vector 5.3745000000000012 5.3745000000000012 0.0000000000000000 
atom 0.0000000000000000 0.0000000000000000 0.0000000000000000 B
atom 0.8957500000000002 0.8957500000000002 0.8957500000000002 N
atom 1.7915000000000003 1.7915000000000003 0.0000000000000000 B
atom 2.6872500000000006 2.6872500000000006 0.8957500000000002 N
atom 3.5830000000000006 3.5830000000000006 0.0000000000000000 B
atom 4.4787500000000007 4.4787500000000007 0.8957500000000002 N
atom 1.7915000000000003 0.0000000000000000 1.7915000000000003 B
atom 2.6872500000000006 0.8957500000000002 2.6872500000000006 N
atom 3.5830000000000006 1.7915000000000003 1.7915000000000003 B
atom 4.4787500000000007 2.6872500000000006 2.6872500000000006 N
atom 5.3745000000000012 3.5830000000000006 1.7915000000000003 B
atom 6.2702500000000017 4.4787500000000007 2.6872500000000006 N
atom 3.5830000000000006 0.0000000000000000 3.5830000000000006 B
atom 4.4787500000000007 0.8957500000000002 4.4787500000000007 N
atom 5.3745000000000012 1.7915000000000003 3.5830000000000006 B
atom 6.2702500000000017 2.6872500000000006 4.4787500000000007 N
atom 7.1660000000000013 3.5830000000000006 3.5830000000000006 B
atom 8.0617500000000017 4.4787500000000007 4.4787500000000007 N
atom 0.0000000000000000 1.7915000000000003 1.7915000000000003 B
atom 0.8957500000000002 2.6872500000000006 2.6872500000000006 N
atom 1.7915000000000003 3.5830000000000006 1.7915000000000003 B
atom 2.6872500000000006 4.4787500000000007 2.6872500000000006 N
atom 3.5830000000000006 5.3745000000000012 1.7915000000000003 B
atom 4.4787500000000007 6.2702500000000017 2.6872500000000006 N
atom 1.7915000000000003 1.7915000000000003 3.5830000000000006 B
atom 2.6872500000000006 2.6872500000000006 4.4787500000000007 N
atom 3.5830000000000006 3.5830000000000006 3.5830000000000006 B
atom 4.4787500000000007 4.4787500000000007 4.4787500000000007 N
atom 5.3745000000000012 5.3745000000000012 3.5830000000000006 B
atom 6.2702500000000017 6.2702500000000017 4.4787500000000007 N
atom 3.5830000000000006 1.7915000000000003 5.3745000000000012 B
atom 4.4787500000000007 2.6872500000000006 6.2702500000000017 N
atom 5.3745000000000012 3.5830000000000006 5.3745000000000012 B
atom 6.2702500000000017 4.4787500000000007 6.2702500000000017 N
atom 7.1660000000000013 5.3745000000000012 5.3745000000000012 B
atom 8.0617500000000017 6.2702500000000017 6.2702500000000017 N
atom 0.0000000000000000 3.5830000000000006 3.5830000000000006 B
atom 0.8957500000000002 4.4787500000000007 4.4787500000000007 N
atom 1.7915000000000003 5.3745000000000012 3.5830000000000006 B
atom 2.6872500000000006 6.2702500000000017 4.4787500000000007 N
atom 3.5830000000000006 7.1660000000000013 3.5830000000000006 B
atom 4.4787500000000007 8.0617500000000017 4.4787500000000007 N
atom 1.7915000000000003 3.5830000000000006 5.3745000000000012 B
atom 2.6872500000000006 4.4787500000000007 6.2702500000000017 N
atom 3.5830000000000006 5.3745000000000012 5.3745000000000012 B
atom 4.4787500000000007 6.2702500000000017 6.2702500000000017 N
atom 5.3745000000000012 7.1660000000000013 5.3745000000000012 B
atom 6.2702500000000017 8.0617500000000017 6.2702500000000017 N
atom 3.5830000000000006 3.5830000000000006 7.1660000000000013 B
atom 4.4787500000000007 4.4787500000000007 8.0617500000000017 N
atom 5.3745000000000012 5.3745000000000012 7.1660000000000013 B
atom 6.2702500000000017 6.2702500000000017 8.0617500000000017 N
atom 7.1660000000000013 7.1660000000000013 7.1660000000000013 B
atom 8.0617500000000017 8.0617500000000017 8.0617500000000017 N
