#=======================================================
#FHI-aims file: /home/ziletti/PycharmProjects/nomadml/tests/tmp_folder/CrTcNbJ50u8bqAFWGjPJKqnuuEvY7_op_0_aims.in
#Created using the Atomic Simulation Environment (ASE)
#=======================================================
lattice_vector 0.0000000000000000 8.0325000000000006 8.0325000000000006 
lattice_vector 8.0325000000000006 0.0000000000000000 8.0325000000000006 
lattice_vector 8.0325000000000006 8.0325000000000006 0.0000000000000000 
atom 0.0000000000000000 0.0000000000000000 0.0000000000000000 Ag
atom 2.6775000000000002 2.6775000000000002 2.6775000000000002 Cl
atom 2.6775000000000002 2.6775000000000002 0.0000000000000000 Ag
atom 5.3550000000000004 5.3550000000000004 2.6775000000000002 Cl
atom 5.3550000000000004 5.3550000000000004 0.0000000000000000 Ag
atom 8.0325000000000006 8.0325000000000006 2.6775000000000002 Cl
atom 2.6775000000000002 0.0000000000000000 2.6775000000000002 Ag
atom 5.3550000000000004 2.6775000000000002 5.3550000000000004 Cl
atom 5.3550000000000004 2.6775000000000002 2.6775000000000002 Ag
atom 8.0325000000000006 5.3550000000000004 5.3550000000000004 Cl
atom 8.0325000000000006 5.3550000000000004 2.6775000000000002 Ag
atom 10.7100000000000009 8.0325000000000006 5.3550000000000004 Cl
atom 5.3550000000000004 0.0000000000000000 5.3550000000000004 Ag
atom 8.0325000000000006 2.6775000000000002 8.0325000000000006 Cl
atom 8.0325000000000006 2.6775000000000002 5.3550000000000004 Ag
atom 10.7100000000000009 5.3550000000000004 8.0325000000000006 Cl
atom 10.7100000000000009 5.3550000000000004 5.3550000000000004 Ag
atom 13.3875000000000011 8.0325000000000006 8.0325000000000006 Cl
atom 0.0000000000000000 2.6775000000000002 2.6775000000000002 Ag
atom 2.6775000000000002 5.3550000000000004 5.3550000000000004 Cl
atom 2.6775000000000002 5.3550000000000004 2.6775000000000002 Ag
atom 5.3550000000000004 8.0325000000000006 5.3550000000000004 Cl
atom 5.3550000000000004 8.0325000000000006 2.6775000000000002 Ag
atom 8.0325000000000006 10.7100000000000009 5.3550000000000004 Cl
atom 2.6775000000000002 2.6775000000000002 5.3550000000000004 Ag
atom 5.3550000000000004 5.3550000000000004 8.0325000000000006 Cl
atom 5.3550000000000004 5.3550000000000004 5.3550000000000004 Ag
atom 8.0325000000000006 8.0325000000000006 8.0325000000000006 Cl
atom 8.0325000000000006 8.0325000000000006 5.3550000000000004 Ag
atom 10.7100000000000009 10.7100000000000009 8.0325000000000006 Cl
atom 5.3550000000000004 2.6775000000000002 8.0325000000000006 Ag
atom 8.0325000000000006 5.3550000000000004 10.7100000000000009 Cl
atom 8.0325000000000006 5.3550000000000004 8.0325000000000006 Ag
atom 10.7100000000000009 8.0325000000000006 10.7100000000000009 Cl
atom 10.7100000000000009 8.0325000000000006 8.0325000000000006 Ag
atom 13.3875000000000011 10.7100000000000009 10.7100000000000009 Cl
atom 0.0000000000000000 5.3550000000000004 5.3550000000000004 Ag
atom 2.6775000000000002 8.0325000000000006 8.0325000000000006 Cl
atom 2.6775000000000002 8.0325000000000006 5.3550000000000004 Ag
atom 5.3550000000000004 10.7100000000000009 8.0325000000000006 Cl
atom 5.3550000000000004 10.7100000000000009 5.3550000000000004 Ag
atom 8.0325000000000006 13.3875000000000011 8.0325000000000006 Cl
atom 2.6775000000000002 5.3550000000000004 8.0325000000000006 Ag
atom 5.3550000000000004 8.0325000000000006 10.7100000000000009 Cl
atom 5.3550000000000004 8.0325000000000006 8.0325000000000006 Ag
atom 8.0325000000000006 10.7100000000000009 10.7100000000000009 Cl
atom 8.0325000000000006 10.7100000000000009 8.0325000000000006 Ag
atom 10.7100000000000009 13.3875000000000011 10.7100000000000009 Cl
atom 5.3550000000000004 5.3550000000000004 10.7100000000000009 Ag
atom 8.0325000000000006 8.0325000000000006 13.3875000000000011 Cl
atom 8.0325000000000006 8.0325000000000006 10.7100000000000009 Ag
atom 10.7100000000000009 10.7100000000000009 13.3875000000000011 Cl
atom 10.7100000000000009 10.7100000000000009 10.7100000000000009 Ag
atom 13.3875000000000011 13.3875000000000011 13.3875000000000011 Cl
