#=======================================================
#FHI-aims file: /home/ziletti/PycharmProjects/nomadml/tests/tmp_folder/CsmYUa8-6qr40jG7XJhUIynL1Ue8b_op_0_aims.in
#Created using the Atomic Simulation Environment (ASE)
#=======================================================
lattice_vector 0.0000000000000000 6.1196099999999998 6.1196099999999998 
lattice_vector 6.1196099999999998 0.0000000000000000 6.1196099999999998 
lattice_vector 6.1196099999999998 6.1196099999999998 0.0000000000000000 
atom 0.0000000000000000 0.0000000000000000 0.0000000000000000 Mg
atom 2.0398700000000001 2.0398700000000001 2.0398700000000001 O
atom 2.0398700000000001 2.0398700000000001 0.0000000000000000 Mg
atom 4.0797400000000001 4.0797400000000001 2.0398700000000001 O
atom 4.0797400000000001 4.0797400000000001 0.0000000000000000 Mg
atom 6.1196099999999998 6.1196099999999998 2.0398700000000001 O
atom 2.0398700000000001 0.0000000000000000 2.0398700000000001 Mg
atom 4.0797400000000001 2.0398700000000001 4.0797400000000001 O
atom 4.0797400000000001 2.0398700000000001 2.0398700000000001 Mg
atom 6.1196099999999998 4.0797400000000001 4.0797400000000001 O
atom 6.1196099999999998 4.0797400000000001 2.0398700000000001 Mg
atom 8.1594800000000003 6.1196099999999998 4.0797400000000001 O
atom 4.0797400000000001 0.0000000000000000 4.0797400000000001 Mg
atom 6.1196099999999998 2.0398700000000001 6.1196099999999998 O
atom 6.1196099999999998 2.0398700000000001 4.0797400000000001 Mg
atom 8.1594800000000003 4.0797400000000001 6.1196099999999998 O
atom 8.1594800000000003 4.0797400000000001 4.0797400000000001 Mg
atom 10.1993500000000008 6.1196099999999998 6.1196099999999998 O
atom 0.0000000000000000 2.0398700000000001 2.0398700000000001 Mg
atom 2.0398700000000001 4.0797400000000001 4.0797400000000001 O
atom 2.0398700000000001 4.0797400000000001 2.0398700000000001 Mg
atom 4.0797400000000001 6.1196099999999998 4.0797400000000001 O
atom 4.0797400000000001 6.1196099999999998 2.0398700000000001 Mg
atom 6.1196099999999998 8.1594800000000003 4.0797400000000001 O
atom 2.0398700000000001 2.0398700000000001 4.0797400000000001 Mg
atom 4.0797400000000001 4.0797400000000001 6.1196099999999998 O
atom 4.0797400000000001 4.0797400000000001 4.0797400000000001 Mg
atom 6.1196099999999998 6.1196099999999998 6.1196099999999998 O
atom 6.1196099999999998 6.1196099999999998 4.0797400000000001 Mg
atom 8.1594800000000003 8.1594800000000003 6.1196099999999998 O
atom 4.0797400000000001 2.0398700000000001 6.1196099999999998 Mg
atom 6.1196099999999998 4.0797400000000001 8.1594800000000003 O
atom 6.1196099999999998 4.0797400000000001 6.1196099999999998 Mg
atom 8.1594800000000003 6.1196099999999998 8.1594800000000003 O
atom 8.1594800000000003 6.1196099999999998 6.1196099999999998 Mg
atom 10.1993500000000008 8.1594800000000003 8.1594800000000003 O
atom 0.0000000000000000 4.0797400000000001 4.0797400000000001 Mg
atom 2.0398700000000001 6.1196099999999998 6.1196099999999998 O
atom 2.0398700000000001 6.1196099999999998 4.0797400000000001 Mg
atom 4.0797400000000001 8.1594800000000003 6.1196099999999998 O
atom 4.0797400000000001 8.1594800000000003 4.0797400000000001 Mg
atom 6.1196099999999998 10.1993500000000008 6.1196099999999998 O
atom 2.0398700000000001 4.0797400000000001 6.1196099999999998 Mg
atom 4.0797400000000001 6.1196099999999998 8.1594800000000003 O
atom 4.0797400000000001 6.1196099999999998 6.1196099999999998 Mg
atom 6.1196099999999998 8.1594800000000003 8.1594800000000003 O
atom 6.1196099999999998 8.1594800000000003 6.1196099999999998 Mg
atom 8.1594800000000003 10.1993500000000008 8.1594800000000003 O
atom 4.0797400000000001 4.0797400000000001 8.1594800000000003 Mg
atom 6.1196099999999998 6.1196099999999998 10.1993500000000008 O
atom 6.1196099999999998 6.1196099999999998 8.1594800000000003 Mg
atom 8.1594800000000003 8.1594800000000003 10.1993500000000008 O
atom 8.1594800000000003 8.1594800000000003 8.1594800000000003 Mg
atom 10.1993500000000008 10.1993500000000008 10.1993500000000008 O
