#=======================================================
#FHI-aims file: /home/ziletti/PycharmProjects/nomadml/tests/tmp_folder/Cst86UVhV07OfKDhwlp0PNxiMtXki_op_0_aims.in
#Created using the Atomic Simulation Environment (ASE)
#=======================================================
lattice_vector 0.0000000000000000 9.0195000000000007 9.0195000000000007 
lattice_vector 9.0195000000000007 0.0000000000000000 9.0195000000000007 
lattice_vector 9.0195000000000007 9.0195000000000007 0.0000000000000000 
atom 0.0000000000000000 0.0000000000000000 0.0000000000000000 Cd
atom 1.5032500000000000 1.5032500000000000 1.5032500000000000 Se
atom 3.0065000000000000 3.0065000000000000 0.0000000000000000 Cd
atom 4.5097500000000004 4.5097500000000004 1.5032500000000000 Se
atom 6.0129999999999999 6.0129999999999999 0.0000000000000000 Cd
atom 7.5162499999999994 7.5162499999999994 1.5032500000000000 Se
atom 3.0065000000000000 0.0000000000000000 3.0065000000000000 Cd
atom 4.5097500000000004 1.5032500000000000 4.5097500000000004 Se
atom 6.0129999999999999 3.0065000000000000 3.0065000000000000 Cd
atom 7.5162499999999994 4.5097500000000004 4.5097500000000004 Se
atom 9.0195000000000007 6.0129999999999999 3.0065000000000000 Cd
atom 10.5227500000000003 7.5162499999999994 4.5097500000000004 Se
atom 6.0129999999999999 0.0000000000000000 6.0129999999999999 Cd
atom 7.5162499999999994 1.5032500000000000 7.5162499999999994 Se
atom 9.0195000000000007 3.0065000000000000 6.0129999999999999 Cd
atom 10.5227500000000003 4.5097500000000004 7.5162499999999994 Se
atom 12.0259999999999998 6.0129999999999999 6.0129999999999999 Cd
atom 13.5292499999999993 7.5162499999999994 7.5162499999999994 Se
atom 0.0000000000000000 3.0065000000000000 3.0065000000000000 Cd
atom 1.5032500000000000 4.5097500000000004 4.5097500000000004 Se
atom 3.0065000000000000 6.0129999999999999 3.0065000000000000 Cd
atom 4.5097500000000004 7.5162499999999994 4.5097500000000004 Se
atom 6.0129999999999999 9.0195000000000007 3.0065000000000000 Cd
atom 7.5162499999999994 10.5227500000000003 4.5097500000000004 Se
atom 3.0065000000000000 3.0065000000000000 6.0129999999999999 Cd
atom 4.5097500000000004 4.5097500000000004 7.5162499999999994 Se
atom 6.0129999999999999 6.0129999999999999 6.0129999999999999 Cd
atom 7.5162499999999994 7.5162499999999994 7.5162499999999994 Se
atom 9.0195000000000007 9.0195000000000007 6.0129999999999999 Cd
atom 10.5227500000000003 10.5227500000000003 7.5162499999999994 Se
atom 6.0129999999999999 3.0065000000000000 9.0195000000000007 Cd
atom 7.5162499999999994 4.5097500000000004 10.5227500000000003 Se
atom 9.0195000000000007 6.0129999999999999 9.0195000000000007 Cd
atom 10.5227500000000003 7.5162499999999994 10.5227500000000003 Se
atom 12.0259999999999998 9.0195000000000007 9.0195000000000007 Cd
atom 13.5292499999999993 10.5227500000000003 10.5227500000000003 Se
atom 0.0000000000000000 6.0129999999999999 6.0129999999999999 Cd
atom 1.5032500000000000 7.5162499999999994 7.5162499999999994 Se
atom 3.0065000000000000 9.0195000000000007 6.0129999999999999 Cd
atom 4.5097500000000004 10.5227500000000003 7.5162499999999994 Se
atom 6.0129999999999999 12.0259999999999998 6.0129999999999999 Cd
atom 7.5162499999999994 13.5292499999999993 7.5162499999999994 Se
atom 3.0065000000000000 6.0129999999999999 9.0195000000000007 Cd
atom 4.5097500000000004 7.5162499999999994 10.5227500000000003 Se
atom 6.0129999999999999 9.0195000000000007 9.0195000000000007 Cd
atom 7.5162499999999994 10.5227500000000003 10.5227500000000003 Se
atom 9.0195000000000007 12.0259999999999998 9.0195000000000007 Cd
atom 10.5227500000000003 13.5292499999999993 10.5227500000000003 Se
atom 6.0129999999999999 6.0129999999999999 12.0259999999999998 Cd
atom 7.5162499999999994 7.5162499999999994 13.5292499999999993 Se
atom 9.0195000000000007 9.0195000000000007 12.0259999999999998 Cd
atom 10.5227500000000003 10.5227500000000003 13.5292499999999993 Se
atom 12.0259999999999998 12.0259999999999998 12.0259999999999998 Cd
atom 13.5292499999999993 13.5292499999999993 13.5292499999999993 Se
