#=======================================================
#FHI-aims file: /home/ziletti/PycharmProjects/nomadml/tests/tmp_folder/Cu9uI6ldU3ZVgwfmy-Um0D7IBxTCK_op_0_aims.in
#Created using the Atomic Simulation Environment (ASE)
#=======================================================
lattice_vector 0.0000000000000000 6.4965000000000011 6.4965000000000011 
lattice_vector 6.4965000000000011 0.0000000000000000 6.4965000000000011 
lattice_vector 6.4965000000000011 6.4965000000000011 0.0000000000000000 
atom 0.0000000000000000 0.0000000000000000 0.0000000000000000 Si
atom 1.0827500000000001 1.0827500000000001 1.0827500000000001 C
atom 2.1655000000000002 2.1655000000000002 0.0000000000000000 Si
atom 3.2482500000000005 3.2482500000000005 1.0827500000000001 C
atom 4.3310000000000004 4.3310000000000004 0.0000000000000000 Si
atom 5.4137500000000003 5.4137500000000003 1.0827500000000001 C
atom 2.1655000000000002 0.0000000000000000 2.1655000000000002 Si
atom 3.2482500000000005 1.0827500000000001 3.2482500000000005 C
atom 4.3310000000000004 2.1655000000000002 2.1655000000000002 Si
atom 5.4137500000000003 3.2482500000000005 3.2482500000000005 C
atom 6.4965000000000011 4.3310000000000004 2.1655000000000002 Si
atom 7.5792500000000009 5.4137500000000003 3.2482500000000005 C
atom 4.3310000000000004 0.0000000000000000 4.3310000000000004 Si
atom 5.4137500000000003 1.0827500000000001 5.4137500000000003 C
atom 6.4965000000000011 2.1655000000000002 4.3310000000000004 Si
atom 7.5792500000000009 3.2482500000000005 5.4137500000000003 C
atom 8.6620000000000008 4.3310000000000004 4.3310000000000004 Si
atom 9.7447500000000016 5.4137500000000003 5.4137500000000003 C
atom 0.0000000000000000 2.1655000000000002 2.1655000000000002 Si
atom 1.0827500000000001 3.2482500000000005 3.2482500000000005 C
atom 2.1655000000000002 4.3310000000000004 2.1655000000000002 Si
atom 3.2482500000000005 5.4137500000000003 3.2482500000000005 C
atom 4.3310000000000004 6.4965000000000011 2.1655000000000002 Si
atom 5.4137500000000003 7.5792500000000009 3.2482500000000005 C
atom 2.1655000000000002 2.1655000000000002 4.3310000000000004 Si
atom 3.2482500000000005 3.2482500000000005 5.4137500000000003 C
atom 4.3310000000000004 4.3310000000000004 4.3310000000000004 Si
atom 5.4137500000000003 5.4137500000000003 5.4137500000000003 C
atom 6.4965000000000011 6.4965000000000011 4.3310000000000004 Si
atom 7.5792500000000009 7.5792500000000009 5.4137500000000003 C
atom 4.3310000000000004 2.1655000000000002 6.4965000000000011 Si
atom 5.4137500000000003 3.2482500000000005 7.5792500000000009 C
atom 6.4965000000000011 4.3310000000000004 6.4965000000000011 Si
atom 7.5792500000000009 5.4137500000000003 7.5792500000000009 C
atom 8.6620000000000008 6.4965000000000011 6.4965000000000011 Si
atom 9.7447500000000016 7.5792500000000009 7.5792500000000009 C
atom 0.0000000000000000 4.3310000000000004 4.3310000000000004 Si
atom 1.0827500000000001 5.4137500000000003 5.4137500000000003 C
atom 2.1655000000000002 6.4965000000000011 4.3310000000000004 Si
atom 3.2482500000000005 7.5792500000000009 5.4137500000000003 C
atom 4.3310000000000004 8.6620000000000008 4.3310000000000004 Si
atom 5.4137500000000003 9.7447500000000016 5.4137500000000003 C
atom 2.1655000000000002 4.3310000000000004 6.4965000000000011 Si
atom 3.2482500000000005 5.4137500000000003 7.5792500000000009 C
atom 4.3310000000000004 6.4965000000000011 6.4965000000000011 Si
atom 5.4137500000000003 7.5792500000000009 7.5792500000000009 C
atom 6.4965000000000011 8.6620000000000008 6.4965000000000011 Si
atom 7.5792500000000009 9.7447500000000016 7.5792500000000009 C
atom 4.3310000000000004 4.3310000000000004 8.6620000000000008 Si
atom 5.4137500000000003 5.4137500000000003 9.7447500000000016 C
atom 6.4965000000000011 6.4965000000000011 8.6620000000000008 Si
atom 7.5792500000000009 7.5792500000000009 9.7447500000000016 C
atom 8.6620000000000008 8.6620000000000008 8.6620000000000008 Si
atom 9.7447500000000016 9.7447500000000016 9.7447500000000016 C
