#=======================================================
#FHI-aims file: /home/ziletti/PycharmProjects/nomadml/tests/tmp_folder/CV--hzM8rvSS8a6LZBuuW6IPbqvY6_op_0_aims.in
#Created using the Atomic Simulation Environment (ASE)
#=======================================================
lattice_vector 0.0000000000000000 9.0779999999999994 9.0779999999999994 
lattice_vector 9.0779999999999994 0.0000000000000000 9.0779999999999994 
lattice_vector 9.0779999999999994 9.0779999999999994 0.0000000000000000 
atom 0.0000000000000000 0.0000000000000000 0.0000000000000000 Ga
atom 1.5129999999999999 1.5129999999999999 1.5129999999999999 Sb
atom 3.0259999999999998 3.0259999999999998 0.0000000000000000 Ga
atom 4.5389999999999997 4.5389999999999997 1.5129999999999999 Sb
atom 6.0519999999999996 6.0519999999999996 0.0000000000000000 Ga
atom 7.5649999999999995 7.5649999999999995 1.5129999999999999 Sb
atom 3.0259999999999998 0.0000000000000000 3.0259999999999998 Ga
atom 4.5389999999999997 1.5129999999999999 4.5389999999999997 Sb
atom 6.0519999999999996 3.0259999999999998 3.0259999999999998 Ga
atom 7.5649999999999995 4.5389999999999997 4.5389999999999997 Sb
atom 9.0779999999999994 6.0519999999999996 3.0259999999999998 Ga
atom 10.5909999999999993 7.5649999999999995 4.5389999999999997 Sb
atom 6.0519999999999996 0.0000000000000000 6.0519999999999996 Ga
atom 7.5649999999999995 1.5129999999999999 7.5649999999999995 Sb
atom 9.0779999999999994 3.0259999999999998 6.0519999999999996 Ga
atom 10.5909999999999993 4.5389999999999997 7.5649999999999995 Sb
atom 12.1039999999999992 6.0519999999999996 6.0519999999999996 Ga
atom 13.6169999999999991 7.5649999999999995 7.5649999999999995 Sb
atom 0.0000000000000000 3.0259999999999998 3.0259999999999998 Ga
atom 1.5129999999999999 4.5389999999999997 4.5389999999999997 Sb
atom 3.0259999999999998 6.0519999999999996 3.0259999999999998 Ga
atom 4.5389999999999997 7.5649999999999995 4.5389999999999997 Sb
atom 6.0519999999999996 9.0779999999999994 3.0259999999999998 Ga
atom 7.5649999999999995 10.5909999999999993 4.5389999999999997 Sb
atom 3.0259999999999998 3.0259999999999998 6.0519999999999996 Ga
atom 4.5389999999999997 4.5389999999999997 7.5649999999999995 Sb
atom 6.0519999999999996 6.0519999999999996 6.0519999999999996 Ga
atom 7.5649999999999995 7.5649999999999995 7.5649999999999995 Sb
atom 9.0779999999999994 9.0779999999999994 6.0519999999999996 Ga
atom 10.5909999999999993 10.5909999999999993 7.5649999999999995 Sb
atom 6.0519999999999996 3.0259999999999998 9.0779999999999994 Ga
atom 7.5649999999999995 4.5389999999999997 10.5909999999999993 Sb
atom 9.0779999999999994 6.0519999999999996 9.0779999999999994 Ga
atom 10.5909999999999993 7.5649999999999995 10.5909999999999993 Sb
atom 12.1039999999999992 9.0779999999999994 9.0779999999999994 Ga
atom 13.6169999999999991 10.5909999999999993 10.5909999999999993 Sb
atom 0.0000000000000000 6.0519999999999996 6.0519999999999996 Ga
atom 1.5129999999999999 7.5649999999999995 7.5649999999999995 Sb
atom 3.0259999999999998 9.0779999999999994 6.0519999999999996 Ga
atom 4.5389999999999997 10.5909999999999993 7.5649999999999995 Sb
atom 6.0519999999999996 12.1039999999999992 6.0519999999999996 Ga
atom 7.5649999999999995 13.6169999999999991 7.5649999999999995 Sb
atom 3.0259999999999998 6.0519999999999996 9.0779999999999994 Ga
atom 4.5389999999999997 7.5649999999999995 10.5909999999999993 Sb
atom 6.0519999999999996 9.0779999999999994 9.0779999999999994 Ga
atom 7.5649999999999995 10.5909999999999993 10.5909999999999993 Sb
atom 9.0779999999999994 12.1039999999999992 9.0779999999999994 Ga
atom 10.5909999999999993 13.6169999999999991 10.5909999999999993 Sb
atom 6.0519999999999996 6.0519999999999996 12.1039999999999992 Ga
atom 7.5649999999999995 7.5649999999999995 13.6169999999999991 Sb
atom 9.0779999999999994 9.0779999999999994 12.1039999999999992 Ga
atom 10.5909999999999993 10.5909999999999993 13.6169999999999991 Sb
atom 12.1039999999999992 12.1039999999999992 12.1039999999999992 Ga
atom 13.6169999999999991 13.6169999999999991 13.6169999999999991 Sb
