#=======================================================
#FHI-aims file: /home/ziletti/PycharmProjects/nomadml/tests/tmp_folder/CVshjrYqjAg_8QtgfGW2ABnR-mlIP_op_0_aims.in
#Created using the Atomic Simulation Environment (ASE)
#=======================================================
lattice_vector 0.0000000000000000 9.7140000000000004 9.7140000000000004 
lattice_vector 9.7140000000000004 0.0000000000000000 9.7140000000000004 
lattice_vector 9.7140000000000004 9.7140000000000004 0.0000000000000000 
atom 0.0000000000000000 0.0000000000000000 0.0000000000000000 Sn
atom 1.6190000000000000 1.6190000000000000 1.6190000000000000 Sn
atom 3.2380000000000000 3.2380000000000000 0.0000000000000000 Sn
atom 4.8570000000000002 4.8570000000000002 1.6190000000000000 Sn
atom 6.4760000000000000 6.4760000000000000 0.0000000000000000 Sn
atom 8.0950000000000006 8.0950000000000006 1.6190000000000000 Sn
atom 3.2380000000000000 0.0000000000000000 3.2380000000000000 Sn
atom 4.8570000000000002 1.6190000000000000 4.8570000000000002 Sn
atom 6.4760000000000000 3.2380000000000000 3.2380000000000000 Sn
atom 8.0950000000000006 4.8570000000000002 4.8570000000000002 Sn
atom 9.7140000000000004 6.4760000000000000 3.2380000000000000 Sn
atom 11.3330000000000002 8.0950000000000006 4.8570000000000002 Sn
atom 6.4760000000000000 0.0000000000000000 6.4760000000000000 Sn
atom 8.0950000000000006 1.6190000000000000 8.0950000000000006 Sn
atom 9.7140000000000004 3.2380000000000000 6.4760000000000000 Sn
atom 11.3330000000000002 4.8570000000000002 8.0950000000000006 Sn
atom 12.9520000000000000 6.4760000000000000 6.4760000000000000 Sn
atom 14.5709999999999997 8.0950000000000006 8.0950000000000006 Sn
atom 0.0000000000000000 3.2380000000000000 3.2380000000000000 Sn
atom 1.6190000000000000 4.8570000000000002 4.8570000000000002 Sn
atom 3.2380000000000000 6.4760000000000000 3.2380000000000000 Sn
atom 4.8570000000000002 8.0950000000000006 4.8570000000000002 Sn
atom 6.4760000000000000 9.7140000000000004 3.2380000000000000 Sn
atom 8.0950000000000006 11.3330000000000002 4.8570000000000002 Sn
atom 3.2380000000000000 3.2380000000000000 6.4760000000000000 Sn
atom 4.8570000000000002 4.8570000000000002 8.0950000000000006 Sn
atom 6.4760000000000000 6.4760000000000000 6.4760000000000000 Sn
atom 8.0950000000000006 8.0950000000000006 8.0950000000000006 Sn
atom 9.7140000000000004 9.7140000000000004 6.4760000000000000 Sn
atom 11.3330000000000002 11.3330000000000002 8.0950000000000006 Sn
atom 6.4760000000000000 3.2380000000000000 9.7140000000000004 Sn
atom 8.0950000000000006 4.8570000000000002 11.3330000000000002 Sn
atom 9.7140000000000004 6.4760000000000000 9.7140000000000004 Sn
atom 11.3330000000000002 8.0950000000000006 11.3330000000000002 Sn
atom 12.9520000000000000 9.7140000000000004 9.7140000000000004 Sn
atom 14.5709999999999997 11.3330000000000002 11.3330000000000002 Sn
atom 0.0000000000000000 6.4760000000000000 6.4760000000000000 Sn
atom 1.6190000000000000 8.0950000000000006 8.0950000000000006 Sn
atom 3.2380000000000000 9.7140000000000004 6.4760000000000000 Sn
atom 4.8570000000000002 11.3330000000000002 8.0950000000000006 Sn
atom 6.4760000000000000 12.9520000000000000 6.4760000000000000 Sn
atom 8.0950000000000006 14.5709999999999997 8.0950000000000006 Sn
atom 3.2380000000000000 6.4760000000000000 9.7140000000000004 Sn
atom 4.8570000000000002 8.0950000000000006 11.3330000000000002 Sn
atom 6.4760000000000000 9.7140000000000004 9.7140000000000004 Sn
atom 8.0950000000000006 11.3330000000000002 11.3330000000000002 Sn
atom 9.7140000000000004 12.9520000000000000 9.7140000000000004 Sn
atom 11.3330000000000002 14.5709999999999997 11.3330000000000002 Sn
atom 6.4760000000000000 6.4760000000000000 12.9520000000000000 Sn
atom 8.0950000000000006 8.0950000000000006 14.5709999999999997 Sn
atom 9.7140000000000004 9.7140000000000004 12.9520000000000000 Sn
atom 11.3330000000000002 11.3330000000000002 14.5709999999999997 Sn
atom 12.9520000000000000 12.9520000000000000 12.9520000000000000 Sn
atom 14.5709999999999997 14.5709999999999997 14.5709999999999997 Sn
