#=======================================================
#FHI-aims file: /home/ziletti/PycharmProjects/nomadml/tests/tmp_folder/CvXy3VrpadhZLQAwphJE6GVB_0OUp_op_0_aims.in
#Created using the Atomic Simulation Environment (ASE)
#=======================================================
lattice_vector 0.0000000000000000 8.3369999999999997 8.3369999999999997 
lattice_vector 8.3369999999999997 0.0000000000000000 8.3369999999999997 
lattice_vector 8.3369999999999997 8.3369999999999997 0.0000000000000000 
atom 0.0000000000000000 0.0000000000000000 0.0000000000000000 Be
atom 1.3895000000000000 1.3895000000000000 1.3895000000000000 Te
atom 2.7789999999999999 2.7789999999999999 0.0000000000000000 Be
atom 4.1684999999999999 4.1684999999999999 1.3895000000000000 Te
atom 5.5579999999999998 5.5579999999999998 0.0000000000000000 Be
atom 6.9474999999999998 6.9474999999999998 1.3895000000000000 Te
atom 2.7789999999999999 0.0000000000000000 2.7789999999999999 Be
atom 4.1684999999999999 1.3895000000000000 4.1684999999999999 Te
atom 5.5579999999999998 2.7789999999999999 2.7789999999999999 Be
atom 6.9474999999999998 4.1684999999999999 4.1684999999999999 Te
atom 8.3369999999999997 5.5579999999999998 2.7789999999999999 Be
atom 9.7264999999999997 6.9474999999999998 4.1684999999999999 Te
atom 5.5579999999999998 0.0000000000000000 5.5579999999999998 Be
atom 6.9474999999999998 1.3895000000000000 6.9474999999999998 Te
atom 8.3369999999999997 2.7789999999999999 5.5579999999999998 Be
atom 9.7264999999999997 4.1684999999999999 6.9474999999999998 Te
atom 11.1159999999999997 5.5579999999999998 5.5579999999999998 Be
atom 12.5054999999999996 6.9474999999999998 6.9474999999999998 Te
atom 0.0000000000000000 2.7789999999999999 2.7789999999999999 Be
atom 1.3895000000000000 4.1684999999999999 4.1684999999999999 Te
atom 2.7789999999999999 5.5579999999999998 2.7789999999999999 Be
atom 4.1684999999999999 6.9474999999999998 4.1684999999999999 Te
atom 5.5579999999999998 8.3369999999999997 2.7789999999999999 Be
atom 6.9474999999999998 9.7264999999999997 4.1684999999999999 Te
atom 2.7789999999999999 2.7789999999999999 5.5579999999999998 Be
atom 4.1684999999999999 4.1684999999999999 6.9474999999999998 Te
atom 5.5579999999999998 5.5579999999999998 5.5579999999999998 Be
atom 6.9474999999999998 6.9474999999999998 6.9474999999999998 Te
atom 8.3369999999999997 8.3369999999999997 5.5579999999999998 Be
atom 9.7264999999999997 9.7264999999999997 6.9474999999999998 Te
atom 5.5579999999999998 2.7789999999999999 8.3369999999999997 Be
atom 6.9474999999999998 4.1684999999999999 9.7264999999999997 Te
atom 8.3369999999999997 5.5579999999999998 8.3369999999999997 Be
atom 9.7264999999999997 6.9474999999999998 9.7264999999999997 Te
atom 11.1159999999999997 8.3369999999999997 8.3369999999999997 Be
atom 12.5054999999999996 9.7264999999999997 9.7264999999999997 Te
atom 0.0000000000000000 5.5579999999999998 5.5579999999999998 Be
atom 1.3895000000000000 6.9474999999999998 6.9474999999999998 Te
atom 2.7789999999999999 8.3369999999999997 5.5579999999999998 Be
atom 4.1684999999999999 9.7264999999999997 6.9474999999999998 Te
atom 5.5579999999999998 11.1159999999999997 5.5579999999999998 Be
atom 6.9474999999999998 12.5054999999999996 6.9474999999999998 Te
atom 2.7789999999999999 5.5579999999999998 8.3369999999999997 Be
atom 4.1684999999999999 6.9474999999999998 9.7264999999999997 Te
atom 5.5579999999999998 8.3369999999999997 8.3369999999999997 Be
atom 6.9474999999999998 9.7264999999999997 9.7264999999999997 Te
atom 8.3369999999999997 11.1159999999999997 8.3369999999999997 Be
atom 9.7264999999999997 12.5054999999999996 9.7264999999999997 Te
atom 5.5579999999999998 5.5579999999999998 11.1159999999999997 Be
atom 6.9474999999999998 6.9474999999999998 12.5054999999999996 Te
atom 8.3369999999999997 8.3369999999999997 11.1159999999999997 Be
atom 9.7264999999999997 9.7264999999999997 12.5054999999999996 Te
atom 11.1159999999999997 11.1159999999999997 11.1159999999999997 Be
atom 12.5054999999999996 12.5054999999999996 12.5054999999999996 Te
