#=======================================================
#FHI-aims file: /home/ziletti/PycharmProjects/nomadml/tests/tmp_folder/CWkXOKoiw0iAE585QkElUZNCYOqYI_op_0_aims.in
#Created using the Atomic Simulation Environment (ASE)
#=======================================================
lattice_vector 0.0000000000000000 8.6895000000000007 8.6895000000000007 
lattice_vector 8.6895000000000007 0.0000000000000000 8.6895000000000007 
lattice_vector 8.6895000000000007 8.6895000000000007 0.0000000000000000 
atom 0.0000000000000000 0.0000000000000000 0.0000000000000000 Ca
atom 2.8965000000000001 2.8965000000000001 2.8965000000000001 Se
atom 2.8965000000000001 2.8965000000000001 0.0000000000000000 Ca
atom 5.7930000000000001 5.7930000000000001 2.8965000000000001 Se
atom 5.7930000000000001 5.7930000000000001 0.0000000000000000 Ca
atom 8.6895000000000007 8.6895000000000007 2.8965000000000001 Se
atom 2.8965000000000001 0.0000000000000000 2.8965000000000001 Ca
atom 5.7930000000000001 2.8965000000000001 5.7930000000000001 Se
atom 5.7930000000000001 2.8965000000000001 2.8965000000000001 Ca
atom 8.6895000000000007 5.7930000000000001 5.7930000000000001 Se
atom 8.6895000000000007 5.7930000000000001 2.8965000000000001 Ca
atom 11.5860000000000003 8.6895000000000007 5.7930000000000001 Se
atom 5.7930000000000001 0.0000000000000000 5.7930000000000001 Ca
atom 8.6895000000000007 2.8965000000000001 8.6895000000000007 Se
atom 8.6895000000000007 2.8965000000000001 5.7930000000000001 Ca
atom 11.5860000000000003 5.7930000000000001 8.6895000000000007 Se
atom 11.5860000000000003 5.7930000000000001 5.7930000000000001 Ca
atom 14.4824999999999999 8.6895000000000007 8.6895000000000007 Se
atom 0.0000000000000000 2.8965000000000001 2.8965000000000001 Ca
atom 2.8965000000000001 5.7930000000000001 5.7930000000000001 Se
atom 2.8965000000000001 5.7930000000000001 2.8965000000000001 Ca
atom 5.7930000000000001 8.6895000000000007 5.7930000000000001 Se
atom 5.7930000000000001 8.6895000000000007 2.8965000000000001 Ca
atom 8.6895000000000007 11.5860000000000003 5.7930000000000001 Se
atom 2.8965000000000001 2.8965000000000001 5.7930000000000001 Ca
atom 5.7930000000000001 5.7930000000000001 8.6895000000000007 Se
atom 5.7930000000000001 5.7930000000000001 5.7930000000000001 Ca
atom 8.6895000000000007 8.6895000000000007 8.6895000000000007 Se
atom 8.6895000000000007 8.6895000000000007 5.7930000000000001 Ca
atom 11.5860000000000003 11.5860000000000003 8.6895000000000007 Se
atom 5.7930000000000001 2.8965000000000001 8.6895000000000007 Ca
atom 8.6895000000000007 5.7930000000000001 11.5860000000000003 Se
atom 8.6895000000000007 5.7930000000000001 8.6895000000000007 Ca
atom 11.5860000000000003 8.6895000000000007 11.5860000000000003 Se
atom 11.5860000000000003 8.6895000000000007 8.6895000000000007 Ca
atom 14.4824999999999999 11.5860000000000003 11.5860000000000003 Se
atom 0.0000000000000000 5.7930000000000001 5.7930000000000001 Ca
atom 2.8965000000000001 8.6895000000000007 8.6895000000000007 Se
atom 2.8965000000000001 8.6895000000000007 5.7930000000000001 Ca
atom 5.7930000000000001 11.5860000000000003 8.6895000000000007 Se
atom 5.7930000000000001 11.5860000000000003 5.7930000000000001 Ca
atom 8.6895000000000007 14.4824999999999999 8.6895000000000007 Se
atom 2.8965000000000001 5.7930000000000001 8.6895000000000007 Ca
atom 5.7930000000000001 8.6895000000000007 11.5860000000000003 Se
atom 5.7930000000000001 8.6895000000000007 8.6895000000000007 Ca
atom 8.6895000000000007 11.5860000000000003 11.5860000000000003 Se
atom 8.6895000000000007 11.5860000000000003 8.6895000000000007 Ca
atom 11.5860000000000003 14.4824999999999999 11.5860000000000003 Se
atom 5.7930000000000001 5.7930000000000001 11.5860000000000003 Ca
atom 8.6895000000000007 8.6895000000000007 14.4824999999999999 Se
atom 8.6895000000000007 8.6895000000000007 11.5860000000000003 Ca
atom 11.5860000000000003 11.5860000000000003 14.4824999999999999 Se
atom 11.5860000000000003 11.5860000000000003 11.5860000000000003 Ca
atom 14.4824999999999999 14.4824999999999999 14.4824999999999999 Se
