#=======================================================
#FHI-aims file: /home/ziletti/PycharmProjects/nomadml/tests/tmp_folder/CWNXU92VwL7KkuoxItglRiuifcOnk_op_0_aims.in
#Created using the Atomic Simulation Environment (ASE)
#=======================================================
lattice_vector 0.0000000000000000 7.4984999999999999 7.4984999999999999 
lattice_vector 7.4984999999999999 0.0000000000000000 7.4984999999999999 
lattice_vector 7.4984999999999999 7.4984999999999999 0.0000000000000000 
atom 0.0000000000000000 0.0000000000000000 0.0000000000000000 Sn
atom 1.2497499999999999 1.2497499999999999 1.2497499999999999 C
atom 2.4994999999999998 2.4994999999999998 0.0000000000000000 Sn
atom 3.7492500000000000 3.7492500000000000 1.2497499999999999 C
atom 4.9989999999999997 4.9989999999999997 0.0000000000000000 Sn
atom 6.2487499999999994 6.2487499999999994 1.2497499999999999 C
atom 2.4994999999999998 0.0000000000000000 2.4994999999999998 Sn
atom 3.7492500000000000 1.2497499999999999 3.7492500000000000 C
atom 4.9989999999999997 2.4994999999999998 2.4994999999999998 Sn
atom 6.2487499999999994 3.7492500000000000 3.7492500000000000 C
atom 7.4984999999999999 4.9989999999999997 2.4994999999999998 Sn
atom 8.7482500000000005 6.2487499999999994 3.7492500000000000 C
atom 4.9989999999999997 0.0000000000000000 4.9989999999999997 Sn
atom 6.2487499999999994 1.2497499999999999 6.2487499999999994 C
atom 7.4984999999999999 2.4994999999999998 4.9989999999999997 Sn
atom 8.7482500000000005 3.7492500000000000 6.2487499999999994 C
atom 9.9979999999999993 4.9989999999999997 4.9989999999999997 Sn
atom 11.2477499999999999 6.2487499999999994 6.2487499999999994 C
atom 0.0000000000000000 2.4994999999999998 2.4994999999999998 Sn
atom 1.2497499999999999 3.7492500000000000 3.7492500000000000 C
atom 2.4994999999999998 4.9989999999999997 2.4994999999999998 Sn
atom 3.7492500000000000 6.2487499999999994 3.7492500000000000 C
atom 4.9989999999999997 7.4984999999999999 2.4994999999999998 Sn
atom 6.2487499999999994 8.7482500000000005 3.7492500000000000 C
atom 2.4994999999999998 2.4994999999999998 4.9989999999999997 Sn
atom 3.7492500000000000 3.7492500000000000 6.2487499999999994 C
atom 4.9989999999999997 4.9989999999999997 4.9989999999999997 Sn
atom 6.2487499999999994 6.2487499999999994 6.2487499999999994 C
atom 7.4984999999999999 7.4984999999999999 4.9989999999999997 Sn
atom 8.7482500000000005 8.7482500000000005 6.2487499999999994 C
atom 4.9989999999999997 2.4994999999999998 7.4984999999999999 Sn
atom 6.2487499999999994 3.7492500000000000 8.7482500000000005 C
atom 7.4984999999999999 4.9989999999999997 7.4984999999999999 Sn
atom 8.7482500000000005 6.2487499999999994 8.7482500000000005 C
atom 9.9979999999999993 7.4984999999999999 7.4984999999999999 Sn
atom 11.2477499999999999 8.7482500000000005 8.7482500000000005 C
atom 0.0000000000000000 4.9989999999999997 4.9989999999999997 Sn
atom 1.2497499999999999 6.2487499999999994 6.2487499999999994 C
atom 2.4994999999999998 7.4984999999999999 4.9989999999999997 Sn
atom 3.7492500000000000 8.7482500000000005 6.2487499999999994 C
atom 4.9989999999999997 9.9979999999999993 4.9989999999999997 Sn
atom 6.2487499999999994 11.2477499999999999 6.2487499999999994 C
atom 2.4994999999999998 4.9989999999999997 7.4984999999999999 Sn
atom 3.7492500000000000 6.2487499999999994 8.7482500000000005 C
atom 4.9989999999999997 7.4984999999999999 7.4984999999999999 Sn
atom 6.2487499999999994 8.7482500000000005 8.7482500000000005 C
atom 7.4984999999999999 9.9979999999999993 7.4984999999999999 Sn
atom 8.7482500000000005 11.2477499999999999 8.7482500000000005 C
atom 4.9989999999999997 4.9989999999999997 9.9979999999999993 Sn
atom 6.2487499999999994 6.2487499999999994 11.2477499999999999 C
atom 7.4984999999999999 7.4984999999999999 9.9979999999999993 Sn
atom 8.7482500000000005 8.7482500000000005 11.2477499999999999 C
atom 9.9979999999999993 9.9979999999999993 9.9979999999999993 Sn
atom 11.2477499999999999 11.2477499999999999 11.2477499999999999 C
