#=======================================================
#FHI-aims file: /home/ziletti/PycharmProjects/nomadml/tests/tmp_folder/CX39jEfgLeDPddrkPuTvUfVv4_thl_op_0_aims.in
#Created using the Atomic Simulation Environment (ASE)
#=======================================================
lattice_vector 0.0000000000000000 7.1970000000000001 7.1970000000000001 
lattice_vector 7.1970000000000001 0.0000000000000000 7.1970000000000001 
lattice_vector 7.1970000000000001 7.1970000000000001 0.0000000000000000 
atom 0.0000000000000000 0.0000000000000000 0.0000000000000000 Be
atom 1.1995000000000000 1.1995000000000000 1.1995000000000000 S
atom 2.3990000000000000 2.3990000000000000 0.0000000000000000 Be
atom 3.5985000000000000 3.5985000000000000 1.1995000000000000 S
atom 4.7980000000000000 4.7980000000000000 0.0000000000000000 Be
atom 5.9975000000000005 5.9975000000000005 1.1995000000000000 S
atom 2.3990000000000000 0.0000000000000000 2.3990000000000000 Be
atom 3.5985000000000000 1.1995000000000000 3.5985000000000000 S
atom 4.7980000000000000 2.3990000000000000 2.3990000000000000 Be
atom 5.9975000000000005 3.5985000000000000 3.5985000000000000 S
atom 7.1970000000000001 4.7980000000000000 2.3990000000000000 Be
atom 8.3964999999999996 5.9975000000000005 3.5985000000000000 S
atom 4.7980000000000000 0.0000000000000000 4.7980000000000000 Be
atom 5.9975000000000005 1.1995000000000000 5.9975000000000005 S
atom 7.1970000000000001 2.3990000000000000 4.7980000000000000 Be
atom 8.3964999999999996 3.5985000000000000 5.9975000000000005 S
atom 9.5960000000000001 4.7980000000000000 4.7980000000000000 Be
atom 10.7955000000000005 5.9975000000000005 5.9975000000000005 S
atom 0.0000000000000000 2.3990000000000000 2.3990000000000000 Be
atom 1.1995000000000000 3.5985000000000000 3.5985000000000000 S
atom 2.3990000000000000 4.7980000000000000 2.3990000000000000 Be
atom 3.5985000000000000 5.9975000000000005 3.5985000000000000 S
atom 4.7980000000000000 7.1970000000000001 2.3990000000000000 Be
atom 5.9975000000000005 8.3964999999999996 3.5985000000000000 S
atom 2.3990000000000000 2.3990000000000000 4.7980000000000000 Be
atom 3.5985000000000000 3.5985000000000000 5.9975000000000005 S
atom 4.7980000000000000 4.7980000000000000 4.7980000000000000 Be
atom 5.9975000000000005 5.9975000000000005 5.9975000000000005 S
atom 7.1970000000000001 7.1970000000000001 4.7980000000000000 Be
atom 8.3964999999999996 8.3964999999999996 5.9975000000000005 S
atom 4.7980000000000000 2.3990000000000000 7.1970000000000001 Be
atom 5.9975000000000005 3.5985000000000000 8.3964999999999996 S
atom 7.1970000000000001 4.7980000000000000 7.1970000000000001 Be
atom 8.3964999999999996 5.9975000000000005 8.3964999999999996 S
atom 9.5960000000000001 7.1970000000000001 7.1970000000000001 Be
atom 10.7955000000000005 8.3964999999999996 8.3964999999999996 S
atom 0.0000000000000000 4.7980000000000000 4.7980000000000000 Be
atom 1.1995000000000000 5.9975000000000005 5.9975000000000005 S
atom 2.3990000000000000 7.1970000000000001 4.7980000000000000 Be
atom 3.5985000000000000 8.3964999999999996 5.9975000000000005 S
atom 4.7980000000000000 9.5960000000000001 4.7980000000000000 Be
atom 5.9975000000000005 10.7955000000000005 5.9975000000000005 S
atom 2.3990000000000000 4.7980000000000000 7.1970000000000001 Be
atom 3.5985000000000000 5.9975000000000005 8.3964999999999996 S
atom 4.7980000000000000 7.1970000000000001 7.1970000000000001 Be
atom 5.9975000000000005 8.3964999999999996 8.3964999999999996 S
atom 7.1970000000000001 9.5960000000000001 7.1970000000000001 Be
atom 8.3964999999999996 10.7955000000000005 8.3964999999999996 S
atom 4.7980000000000000 4.7980000000000000 9.5960000000000001 Be
atom 5.9975000000000005 5.9975000000000005 10.7955000000000005 S
atom 7.1970000000000001 7.1970000000000001 9.5960000000000001 Be
atom 8.3964999999999996 8.3964999999999996 10.7955000000000005 S
atom 9.5960000000000001 9.5960000000000001 9.5960000000000001 Be
atom 10.7955000000000005 10.7955000000000005 10.7955000000000005 S
