#=======================================================
#FHI-aims file: /home/ziletti/PycharmProjects/nomadml/tests/tmp_folder/CxJnNtspUIcqGhneVuSJKposdVxH__op_0_aims.in
#Created using the Atomic Simulation Environment (ASE)
#=======================================================
lattice_vector 0.0000000000000000 8.3475000000000019 8.3475000000000019 
lattice_vector 8.3475000000000019 0.0000000000000000 8.3475000000000019 
lattice_vector 8.3475000000000019 8.3475000000000019 0.0000000000000000 
atom 0.0000000000000000 0.0000000000000000 0.0000000000000000 Ca
atom 2.7825000000000006 2.7825000000000006 2.7825000000000006 S
atom 2.7825000000000006 2.7825000000000006 0.0000000000000000 Ca
atom 5.5650000000000013 5.5650000000000013 2.7825000000000006 S
atom 5.5650000000000013 5.5650000000000013 0.0000000000000000 Ca
atom 8.3475000000000019 8.3475000000000019 2.7825000000000006 S
atom 2.7825000000000006 0.0000000000000000 2.7825000000000006 Ca
atom 5.5650000000000013 2.7825000000000006 5.5650000000000013 S
atom 5.5650000000000013 2.7825000000000006 2.7825000000000006 Ca
atom 8.3475000000000019 5.5650000000000013 5.5650000000000013 S
atom 8.3475000000000019 5.5650000000000013 2.7825000000000006 Ca
atom 11.1300000000000026 8.3475000000000019 5.5650000000000013 S
atom 5.5650000000000013 0.0000000000000000 5.5650000000000013 Ca
atom 8.3475000000000019 2.7825000000000006 8.3475000000000019 S
atom 8.3475000000000019 2.7825000000000006 5.5650000000000013 Ca
atom 11.1300000000000026 5.5650000000000013 8.3475000000000019 S
atom 11.1300000000000026 5.5650000000000013 5.5650000000000013 Ca
atom 13.9125000000000032 8.3475000000000019 8.3475000000000019 S
atom 0.0000000000000000 2.7825000000000006 2.7825000000000006 Ca
atom 2.7825000000000006 5.5650000000000013 5.5650000000000013 S
atom 2.7825000000000006 5.5650000000000013 2.7825000000000006 Ca
atom 5.5650000000000013 8.3475000000000019 5.5650000000000013 S
atom 5.5650000000000013 8.3475000000000019 2.7825000000000006 Ca
atom 8.3475000000000019 11.1300000000000026 5.5650000000000013 S
atom 2.7825000000000006 2.7825000000000006 5.5650000000000013 Ca
atom 5.5650000000000013 5.5650000000000013 8.3475000000000019 S
atom 5.5650000000000013 5.5650000000000013 5.5650000000000013 Ca
atom 8.3475000000000019 8.3475000000000019 8.3475000000000019 S
atom 8.3475000000000019 8.3475000000000019 5.5650000000000013 Ca
atom 11.1300000000000026 11.1300000000000026 8.3475000000000019 S
atom 5.5650000000000013 2.7825000000000006 8.3475000000000019 Ca
atom 8.3475000000000019 5.5650000000000013 11.1300000000000026 S
atom 8.3475000000000019 5.5650000000000013 8.3475000000000019 Ca
atom 11.1300000000000026 8.3475000000000019 11.1300000000000026 S
atom 11.1300000000000026 8.3475000000000019 8.3475000000000019 Ca
atom 13.9125000000000032 11.1300000000000026 11.1300000000000026 S
atom 0.0000000000000000 5.5650000000000013 5.5650000000000013 Ca
atom 2.7825000000000006 8.3475000000000019 8.3475000000000019 S
atom 2.7825000000000006 8.3475000000000019 5.5650000000000013 Ca
atom 5.5650000000000013 11.1300000000000026 8.3475000000000019 S
atom 5.5650000000000013 11.1300000000000026 5.5650000000000013 Ca
atom 8.3475000000000019 13.9125000000000032 8.3475000000000019 S
atom 2.7825000000000006 5.5650000000000013 8.3475000000000019 Ca
atom 5.5650000000000013 8.3475000000000019 11.1300000000000026 S
atom 5.5650000000000013 8.3475000000000019 8.3475000000000019 Ca
atom 8.3475000000000019 11.1300000000000026 11.1300000000000026 S
atom 8.3475000000000019 11.1300000000000026 8.3475000000000019 Ca
atom 11.1300000000000026 13.9125000000000032 11.1300000000000026 S
atom 5.5650000000000013 5.5650000000000013 11.1300000000000026 Ca
atom 8.3475000000000019 8.3475000000000019 13.9125000000000032 S
atom 8.3475000000000019 8.3475000000000019 11.1300000000000026 Ca
atom 11.1300000000000026 11.1300000000000026 13.9125000000000032 S
atom 11.1300000000000026 11.1300000000000026 11.1300000000000026 Ca
atom 13.9125000000000032 13.9125000000000032 13.9125000000000032 S
