#=======================================================
#FHI-aims file: /home/ziletti/PycharmProjects/nomadml/tests/tmp_folder/CxrF4NRKjX9jsmVIocs7uQuLwD_cS_op_0_aims.in
#Created using the Atomic Simulation Environment (ASE)
#=======================================================
lattice_vector 0.0000000000000000 9.6809999999999992 9.6809999999999992 
lattice_vector 9.6809999999999992 0.0000000000000000 9.6809999999999992 
lattice_vector 9.6809999999999992 9.6809999999999992 0.0000000000000000 
atom 0.0000000000000000 0.0000000000000000 0.0000000000000000 In
atom 1.6134999999999999 1.6134999999999999 1.6134999999999999 Sb
atom 3.2269999999999999 3.2269999999999999 0.0000000000000000 In
atom 4.8404999999999996 4.8404999999999996 1.6134999999999999 Sb
atom 6.4539999999999997 6.4539999999999997 0.0000000000000000 In
atom 8.0674999999999990 8.0674999999999990 1.6134999999999999 Sb
atom 3.2269999999999999 0.0000000000000000 3.2269999999999999 In
atom 4.8404999999999996 1.6134999999999999 4.8404999999999996 Sb
atom 6.4539999999999997 3.2269999999999999 3.2269999999999999 In
atom 8.0674999999999990 4.8404999999999996 4.8404999999999996 Sb
atom 9.6809999999999992 6.4539999999999997 3.2269999999999999 In
atom 11.2944999999999993 8.0674999999999990 4.8404999999999996 Sb
atom 6.4539999999999997 0.0000000000000000 6.4539999999999997 In
atom 8.0674999999999990 1.6134999999999999 8.0674999999999990 Sb
atom 9.6809999999999992 3.2269999999999999 6.4539999999999997 In
atom 11.2944999999999993 4.8404999999999996 8.0674999999999990 Sb
atom 12.9079999999999995 6.4539999999999997 6.4539999999999997 In
atom 14.5214999999999996 8.0674999999999990 8.0674999999999990 Sb
atom 0.0000000000000000 3.2269999999999999 3.2269999999999999 In
atom 1.6134999999999999 4.8404999999999996 4.8404999999999996 Sb
atom 3.2269999999999999 6.4539999999999997 3.2269999999999999 In
atom 4.8404999999999996 8.0674999999999990 4.8404999999999996 Sb
atom 6.4539999999999997 9.6809999999999992 3.2269999999999999 In
atom 8.0674999999999990 11.2944999999999993 4.8404999999999996 Sb
atom 3.2269999999999999 3.2269999999999999 6.4539999999999997 In
atom 4.8404999999999996 4.8404999999999996 8.0674999999999990 Sb
atom 6.4539999999999997 6.4539999999999997 6.4539999999999997 In
atom 8.0674999999999990 8.0674999999999990 8.0674999999999990 Sb
atom 9.6809999999999992 9.6809999999999992 6.4539999999999997 In
atom 11.2944999999999993 11.2944999999999993 8.0674999999999990 Sb
atom 6.4539999999999997 3.2269999999999999 9.6809999999999992 In
atom 8.0674999999999990 4.8404999999999996 11.2944999999999993 Sb
atom 9.6809999999999992 6.4539999999999997 9.6809999999999992 In
atom 11.2944999999999993 8.0674999999999990 11.2944999999999993 Sb
atom 12.9079999999999995 9.6809999999999992 9.6809999999999992 In
atom 14.5214999999999996 11.2944999999999993 11.2944999999999993 Sb
atom 0.0000000000000000 6.4539999999999997 6.4539999999999997 In
atom 1.6134999999999999 8.0674999999999990 8.0674999999999990 Sb
atom 3.2269999999999999 9.6809999999999992 6.4539999999999997 In
atom 4.8404999999999996 11.2944999999999993 8.0674999999999990 Sb
atom 6.4539999999999997 12.9079999999999995 6.4539999999999997 In
atom 8.0674999999999990 14.5214999999999996 8.0674999999999990 Sb
atom 3.2269999999999999 6.4539999999999997 9.6809999999999992 In
atom 4.8404999999999996 8.0674999999999990 11.2944999999999993 Sb
atom 6.4539999999999997 9.6809999999999992 9.6809999999999992 In
atom 8.0674999999999990 11.2944999999999993 11.2944999999999993 Sb
atom 9.6809999999999992 12.9079999999999995 9.6809999999999992 In
atom 11.2944999999999993 14.5214999999999996 11.2944999999999993 Sb
atom 6.4539999999999997 6.4539999999999997 12.9079999999999995 In
atom 8.0674999999999990 8.0674999999999990 14.5214999999999996 Sb
atom 9.6809999999999992 9.6809999999999992 12.9079999999999995 In
atom 11.2944999999999993 11.2944999999999993 14.5214999999999996 Sb
atom 12.9079999999999995 12.9079999999999995 12.9079999999999995 In
atom 14.5214999999999996 14.5214999999999996 14.5214999999999996 Sb
