#=======================================================
#FHI-aims file: /home/ziletti/PycharmProjects/nomadml/tests/tmp_folder/CYeYlDJb7j4qJ9ol38GSM_eYJsiSe_op_0_aims.in
#Created using the Atomic Simulation Environment (ASE)
#=======================================================
lattice_vector 0.0000000000000000 7.1010000000000000 7.1010000000000000 
lattice_vector 7.1010000000000000 0.0000000000000000 7.1010000000000000 
lattice_vector 7.1010000000000000 7.1010000000000000 0.0000000000000000 
atom 0.0000000000000000 0.0000000000000000 0.0000000000000000 B
atom 1.1835000000000000 1.1835000000000000 1.1835000000000000 As
atom 2.3670000000000000 2.3670000000000000 0.0000000000000000 B
atom 3.5505000000000000 3.5505000000000000 1.1835000000000000 As
atom 4.7340000000000000 4.7340000000000000 0.0000000000000000 B
atom 5.9175000000000004 5.9175000000000004 1.1835000000000000 As
atom 2.3670000000000000 0.0000000000000000 2.3670000000000000 B
atom 3.5505000000000000 1.1835000000000000 3.5505000000000000 As
atom 4.7340000000000000 2.3670000000000000 2.3670000000000000 B
atom 5.9175000000000004 3.5505000000000000 3.5505000000000000 As
atom 7.1010000000000000 4.7340000000000000 2.3670000000000000 B
atom 8.2844999999999995 5.9175000000000004 3.5505000000000000 As
atom 4.7340000000000000 0.0000000000000000 4.7340000000000000 B
atom 5.9175000000000004 1.1835000000000000 5.9175000000000004 As
atom 7.1010000000000000 2.3670000000000000 4.7340000000000000 B
atom 8.2844999999999995 3.5505000000000000 5.9175000000000004 As
atom 9.4680000000000000 4.7340000000000000 4.7340000000000000 B
atom 10.6515000000000004 5.9175000000000004 5.9175000000000004 As
atom 0.0000000000000000 2.3670000000000000 2.3670000000000000 B
atom 1.1835000000000000 3.5505000000000000 3.5505000000000000 As
atom 2.3670000000000000 4.7340000000000000 2.3670000000000000 B
atom 3.5505000000000000 5.9175000000000004 3.5505000000000000 As
atom 4.7340000000000000 7.1010000000000000 2.3670000000000000 B
atom 5.9175000000000004 8.2844999999999995 3.5505000000000000 As
atom 2.3670000000000000 2.3670000000000000 4.7340000000000000 B
atom 3.5505000000000000 3.5505000000000000 5.9175000000000004 As
atom 4.7340000000000000 4.7340000000000000 4.7340000000000000 B
atom 5.9175000000000004 5.9175000000000004 5.9175000000000004 As
atom 7.1010000000000000 7.1010000000000000 4.7340000000000000 B
atom 8.2844999999999995 8.2844999999999995 5.9175000000000004 As
atom 4.7340000000000000 2.3670000000000000 7.1010000000000000 B
atom 5.9175000000000004 3.5505000000000000 8.2844999999999995 As
atom 7.1010000000000000 4.7340000000000000 7.1010000000000000 B
atom 8.2844999999999995 5.9175000000000004 8.2844999999999995 As
atom 9.4680000000000000 7.1010000000000000 7.1010000000000000 B
atom 10.6515000000000004 8.2844999999999995 8.2844999999999995 As
atom 0.0000000000000000 4.7340000000000000 4.7340000000000000 B
atom 1.1835000000000000 5.9175000000000004 5.9175000000000004 As
atom 2.3670000000000000 7.1010000000000000 4.7340000000000000 B
atom 3.5505000000000000 8.2844999999999995 5.9175000000000004 As
atom 4.7340000000000000 9.4680000000000000 4.7340000000000000 B
atom 5.9175000000000004 10.6515000000000004 5.9175000000000004 As
atom 2.3670000000000000 4.7340000000000000 7.1010000000000000 B
atom 3.5505000000000000 5.9175000000000004 8.2844999999999995 As
atom 4.7340000000000000 7.1010000000000000 7.1010000000000000 B
atom 5.9175000000000004 8.2844999999999995 8.2844999999999995 As
atom 7.1010000000000000 9.4680000000000000 7.1010000000000000 B
atom 8.2844999999999995 10.6515000000000004 8.2844999999999995 As
atom 4.7340000000000000 4.7340000000000000 9.4680000000000000 B
atom 5.9175000000000004 5.9175000000000004 10.6515000000000004 As
atom 7.1010000000000000 7.1010000000000000 9.4680000000000000 B
atom 8.2844999999999995 8.2844999999999995 10.6515000000000004 As
atom 9.4680000000000000 9.4680000000000000 9.4680000000000000 B
atom 10.6515000000000004 10.6515000000000004 10.6515000000000004 As
