#=======================================================
#FHI-aims file: /home/ziletti/PycharmProjects/nomadml/tests/tmp_folder/CyizrsR40QyxopYKKk2jUtl7nElXJ_op_0_aims.in
#Created using the Atomic Simulation Environment (ASE)
#=======================================================
lattice_vector 0.0000000000000000 7.8150000000000013 7.8150000000000013 
lattice_vector 7.8150000000000013 0.0000000000000000 7.8150000000000013 
lattice_vector 7.8150000000000013 7.8150000000000013 0.0000000000000000 
atom 0.0000000000000000 0.0000000000000000 0.0000000000000000 Cu
atom 1.3025000000000002 1.3025000000000002 1.3025000000000002 Cl
atom 2.6050000000000004 2.6050000000000004 0.0000000000000000 Cu
atom 3.9075000000000006 3.9075000000000006 1.3025000000000002 Cl
atom 5.2100000000000009 5.2100000000000009 0.0000000000000000 Cu
atom 6.5125000000000011 6.5125000000000011 1.3025000000000002 Cl
atom 2.6050000000000004 0.0000000000000000 2.6050000000000004 Cu
atom 3.9075000000000006 1.3025000000000002 3.9075000000000006 Cl
atom 5.2100000000000009 2.6050000000000004 2.6050000000000004 Cu
atom 6.5125000000000011 3.9075000000000006 3.9075000000000006 Cl
atom 7.8150000000000013 5.2100000000000009 2.6050000000000004 Cu
atom 9.1175000000000015 6.5125000000000011 3.9075000000000006 Cl
atom 5.2100000000000009 0.0000000000000000 5.2100000000000009 Cu
atom 6.5125000000000011 1.3025000000000002 6.5125000000000011 Cl
atom 7.8150000000000013 2.6050000000000004 5.2100000000000009 Cu
atom 9.1175000000000015 3.9075000000000006 6.5125000000000011 Cl
atom 10.4200000000000017 5.2100000000000009 5.2100000000000009 Cu
atom 11.7225000000000019 6.5125000000000011 6.5125000000000011 Cl
atom 0.0000000000000000 2.6050000000000004 2.6050000000000004 Cu
atom 1.3025000000000002 3.9075000000000006 3.9075000000000006 Cl
atom 2.6050000000000004 5.2100000000000009 2.6050000000000004 Cu
atom 3.9075000000000006 6.5125000000000011 3.9075000000000006 Cl
atom 5.2100000000000009 7.8150000000000013 2.6050000000000004 Cu
atom 6.5125000000000011 9.1175000000000015 3.9075000000000006 Cl
atom 2.6050000000000004 2.6050000000000004 5.2100000000000009 Cu
atom 3.9075000000000006 3.9075000000000006 6.5125000000000011 Cl
atom 5.2100000000000009 5.2100000000000009 5.2100000000000009 Cu
atom 6.5125000000000011 6.5125000000000011 6.5125000000000011 Cl
atom 7.8150000000000013 7.8150000000000013 5.2100000000000009 Cu
atom 9.1175000000000015 9.1175000000000015 6.5125000000000011 Cl
atom 5.2100000000000009 2.6050000000000004 7.8150000000000013 Cu
atom 6.5125000000000011 3.9075000000000006 9.1175000000000015 Cl
atom 7.8150000000000013 5.2100000000000009 7.8150000000000013 Cu
atom 9.1175000000000015 6.5125000000000011 9.1175000000000015 Cl
atom 10.4200000000000017 7.8150000000000013 7.8150000000000013 Cu
atom 11.7225000000000019 9.1175000000000015 9.1175000000000015 Cl
atom 0.0000000000000000 5.2100000000000009 5.2100000000000009 Cu
atom 1.3025000000000002 6.5125000000000011 6.5125000000000011 Cl
atom 2.6050000000000004 7.8150000000000013 5.2100000000000009 Cu
atom 3.9075000000000006 9.1175000000000015 6.5125000000000011 Cl
atom 5.2100000000000009 10.4200000000000017 5.2100000000000009 Cu
atom 6.5125000000000011 11.7225000000000019 6.5125000000000011 Cl
atom 2.6050000000000004 5.2100000000000009 7.8150000000000013 Cu
atom 3.9075000000000006 6.5125000000000011 9.1175000000000015 Cl
atom 5.2100000000000009 7.8150000000000013 7.8150000000000013 Cu
atom 6.5125000000000011 9.1175000000000015 9.1175000000000015 Cl
atom 7.8150000000000013 10.4200000000000017 7.8150000000000013 Cu
atom 9.1175000000000015 11.7225000000000019 9.1175000000000015 Cl
atom 5.2100000000000009 5.2100000000000009 10.4200000000000017 Cu
atom 6.5125000000000011 6.5125000000000011 11.7225000000000019 Cl
atom 7.8150000000000013 7.8150000000000013 10.4200000000000017 Cu
atom 9.1175000000000015 9.1175000000000015 11.7225000000000019 Cl
atom 10.4200000000000017 10.4200000000000017 10.4200000000000017 Cu
atom 11.7225000000000019 11.7225000000000019 11.7225000000000019 Cl
