#=======================================================
#FHI-aims file: /home/ziletti/PycharmProjects/nomadml/tests/tmp_folder/CYOw5h3ttt0tMyUPOvqDPc6yArPTy_op_0_aims.in
#Created using the Atomic Simulation Environment (ASE)
#=======================================================
lattice_vector 0.0000000000000000 9.4065000000000012 9.4065000000000012 
lattice_vector 9.4065000000000012 0.0000000000000000 9.4065000000000012 
lattice_vector 9.4065000000000012 9.4065000000000012 0.0000000000000000 
atom 0.0000000000000000 0.0000000000000000 0.0000000000000000 Ba
atom 3.1355000000000004 3.1355000000000004 3.1355000000000004 S
atom 3.1355000000000004 3.1355000000000004 0.0000000000000000 Ba
atom 6.2710000000000008 6.2710000000000008 3.1355000000000004 S
atom 6.2710000000000008 6.2710000000000008 0.0000000000000000 Ba
atom 9.4065000000000012 9.4065000000000012 3.1355000000000004 S
atom 3.1355000000000004 0.0000000000000000 3.1355000000000004 Ba
atom 6.2710000000000008 3.1355000000000004 6.2710000000000008 S
atom 6.2710000000000008 3.1355000000000004 3.1355000000000004 Ba
atom 9.4065000000000012 6.2710000000000008 6.2710000000000008 S
atom 9.4065000000000012 6.2710000000000008 3.1355000000000004 Ba
atom 12.5420000000000016 9.4065000000000012 6.2710000000000008 S
atom 6.2710000000000008 0.0000000000000000 6.2710000000000008 Ba
atom 9.4065000000000012 3.1355000000000004 9.4065000000000012 S
atom 9.4065000000000012 3.1355000000000004 6.2710000000000008 Ba
atom 12.5420000000000016 6.2710000000000008 9.4065000000000012 S
atom 12.5420000000000016 6.2710000000000008 6.2710000000000008 Ba
atom 15.6775000000000020 9.4065000000000012 9.4065000000000012 S
atom 0.0000000000000000 3.1355000000000004 3.1355000000000004 Ba
atom 3.1355000000000004 6.2710000000000008 6.2710000000000008 S
atom 3.1355000000000004 6.2710000000000008 3.1355000000000004 Ba
atom 6.2710000000000008 9.4065000000000012 6.2710000000000008 S
atom 6.2710000000000008 9.4065000000000012 3.1355000000000004 Ba
atom 9.4065000000000012 12.5420000000000016 6.2710000000000008 S
atom 3.1355000000000004 3.1355000000000004 6.2710000000000008 Ba
atom 6.2710000000000008 6.2710000000000008 9.4065000000000012 S
atom 6.2710000000000008 6.2710000000000008 6.2710000000000008 Ba
atom 9.4065000000000012 9.4065000000000012 9.4065000000000012 S
atom 9.4065000000000012 9.4065000000000012 6.2710000000000008 Ba
atom 12.5420000000000016 12.5420000000000016 9.4065000000000012 S
atom 6.2710000000000008 3.1355000000000004 9.4065000000000012 Ba
atom 9.4065000000000012 6.2710000000000008 12.5420000000000016 S
atom 9.4065000000000012 6.2710000000000008 9.4065000000000012 Ba
atom 12.5420000000000016 9.4065000000000012 12.5420000000000016 S
atom 12.5420000000000016 9.4065000000000012 9.4065000000000012 Ba
atom 15.6775000000000020 12.5420000000000016 12.5420000000000016 S
atom 0.0000000000000000 6.2710000000000008 6.2710000000000008 Ba
atom 3.1355000000000004 9.4065000000000012 9.4065000000000012 S
atom 3.1355000000000004 9.4065000000000012 6.2710000000000008 Ba
atom 6.2710000000000008 12.5420000000000016 9.4065000000000012 S
atom 6.2710000000000008 12.5420000000000016 6.2710000000000008 Ba
atom 9.4065000000000012 15.6775000000000020 9.4065000000000012 S
atom 3.1355000000000004 6.2710000000000008 9.4065000000000012 Ba
atom 6.2710000000000008 9.4065000000000012 12.5420000000000016 S
atom 6.2710000000000008 9.4065000000000012 9.4065000000000012 Ba
atom 9.4065000000000012 12.5420000000000016 12.5420000000000016 S
atom 9.4065000000000012 12.5420000000000016 9.4065000000000012 Ba
atom 12.5420000000000016 15.6775000000000020 12.5420000000000016 S
atom 6.2710000000000008 6.2710000000000008 12.5420000000000016 Ba
atom 9.4065000000000012 9.4065000000000012 15.6775000000000020 S
atom 9.4065000000000012 9.4065000000000012 12.5420000000000016 Ba
atom 12.5420000000000016 12.5420000000000016 15.6775000000000020 S
atom 12.5420000000000016 12.5420000000000016 12.5420000000000016 Ba
atom 15.6775000000000020 15.6775000000000020 15.6775000000000020 S
