#=======================================================
#FHI-aims file: /home/ziletti/PycharmProjects/nomadml/tests/tmp_folder/CzkPWSKWCQ14F1io7eGkOhK7h0O_Q_op_0_aims.in
#Created using the Atomic Simulation Environment (ASE)
#=======================================================
lattice_vector 0.0000000000000000 8.7645000000000000 8.7645000000000000 
lattice_vector 8.7645000000000000 0.0000000000000000 8.7645000000000000 
lattice_vector 8.7645000000000000 8.7645000000000000 0.0000000000000000 
atom 0.0000000000000000 0.0000000000000000 0.0000000000000000 Mg
atom 2.9215000000000000 2.9215000000000000 2.9215000000000000 Te
atom 2.9215000000000000 2.9215000000000000 0.0000000000000000 Mg
atom 5.8430000000000000 5.8430000000000000 2.9215000000000000 Te
atom 5.8430000000000000 5.8430000000000000 0.0000000000000000 Mg
atom 8.7645000000000000 8.7645000000000000 2.9215000000000000 Te
atom 2.9215000000000000 0.0000000000000000 2.9215000000000000 Mg
atom 5.8430000000000000 2.9215000000000000 5.8430000000000000 Te
atom 5.8430000000000000 2.9215000000000000 2.9215000000000000 Mg
atom 8.7645000000000000 5.8430000000000000 5.8430000000000000 Te
atom 8.7645000000000000 5.8430000000000000 2.9215000000000000 Mg
atom 11.6859999999999999 8.7645000000000000 5.8430000000000000 Te
atom 5.8430000000000000 0.0000000000000000 5.8430000000000000 Mg
atom 8.7645000000000000 2.9215000000000000 8.7645000000000000 Te
atom 8.7645000000000000 2.9215000000000000 5.8430000000000000 Mg
atom 11.6859999999999999 5.8430000000000000 8.7645000000000000 Te
atom 11.6859999999999999 5.8430000000000000 5.8430000000000000 Mg
atom 14.6074999999999999 8.7645000000000000 8.7645000000000000 Te
atom 0.0000000000000000 2.9215000000000000 2.9215000000000000 Mg
atom 2.9215000000000000 5.8430000000000000 5.8430000000000000 Te
atom 2.9215000000000000 5.8430000000000000 2.9215000000000000 Mg
atom 5.8430000000000000 8.7645000000000000 5.8430000000000000 Te
atom 5.8430000000000000 8.7645000000000000 2.9215000000000000 Mg
atom 8.7645000000000000 11.6859999999999999 5.8430000000000000 Te
atom 2.9215000000000000 2.9215000000000000 5.8430000000000000 Mg
atom 5.8430000000000000 5.8430000000000000 8.7645000000000000 Te
atom 5.8430000000000000 5.8430000000000000 5.8430000000000000 Mg
atom 8.7645000000000000 8.7645000000000000 8.7645000000000000 Te
atom 8.7645000000000000 8.7645000000000000 5.8430000000000000 Mg
atom 11.6859999999999999 11.6859999999999999 8.7645000000000000 Te
atom 5.8430000000000000 2.9215000000000000 8.7645000000000000 Mg
atom 8.7645000000000000 5.8430000000000000 11.6859999999999999 Te
atom 8.7645000000000000 5.8430000000000000 8.7645000000000000 Mg
atom 11.6859999999999999 8.7645000000000000 11.6859999999999999 Te
atom 11.6859999999999999 8.7645000000000000 8.7645000000000000 Mg
atom 14.6074999999999999 11.6859999999999999 11.6859999999999999 Te
atom 0.0000000000000000 5.8430000000000000 5.8430000000000000 Mg
atom 2.9215000000000000 8.7645000000000000 8.7645000000000000 Te
atom 2.9215000000000000 8.7645000000000000 5.8430000000000000 Mg
atom 5.8430000000000000 11.6859999999999999 8.7645000000000000 Te
atom 5.8430000000000000 11.6859999999999999 5.8430000000000000 Mg
atom 8.7645000000000000 14.6074999999999999 8.7645000000000000 Te
atom 2.9215000000000000 5.8430000000000000 8.7645000000000000 Mg
atom 5.8430000000000000 8.7645000000000000 11.6859999999999999 Te
atom 5.8430000000000000 8.7645000000000000 8.7645000000000000 Mg
atom 8.7645000000000000 11.6859999999999999 11.6859999999999999 Te
atom 8.7645000000000000 11.6859999999999999 8.7645000000000000 Mg
atom 11.6859999999999999 14.6074999999999999 11.6859999999999999 Te
atom 5.8430000000000000 5.8430000000000000 11.6859999999999999 Mg
atom 8.7645000000000000 8.7645000000000000 14.6074999999999999 Te
atom 8.7645000000000000 8.7645000000000000 11.6859999999999999 Mg
atom 11.6859999999999999 11.6859999999999999 14.6074999999999999 Te
atom 11.6859999999999999 11.6859999999999999 11.6859999999999999 Mg
atom 14.6074999999999999 14.6074999999999999 14.6074999999999999 Te
