#=======================================================
#FHI-aims file: /home/ziletti/PycharmProjects/nomadml/tests/tmp_folder/Czl8jOEFAC45VXxnxMJ7_nf2xS6v2_op_0_aims.in
#Created using the Atomic Simulation Environment (ASE)
#=======================================================
lattice_vector 0.0000000000000000 7.6979999999999995 7.6979999999999995 
lattice_vector 7.6979999999999995 0.0000000000000000 7.6979999999999995 
lattice_vector 7.6979999999999995 7.6979999999999995 0.0000000000000000 
atom 0.0000000000000000 0.0000000000000000 0.0000000000000000 Mg
atom 2.5659999999999998 2.5659999999999998 2.5659999999999998 S
atom 2.5659999999999998 2.5659999999999998 0.0000000000000000 Mg
atom 5.1319999999999997 5.1319999999999997 2.5659999999999998 S
atom 5.1319999999999997 5.1319999999999997 0.0000000000000000 Mg
atom 7.6979999999999995 7.6979999999999995 2.5659999999999998 S
atom 2.5659999999999998 0.0000000000000000 2.5659999999999998 Mg
atom 5.1319999999999997 2.5659999999999998 5.1319999999999997 S
atom 5.1319999999999997 2.5659999999999998 2.5659999999999998 Mg
atom 7.6979999999999995 5.1319999999999997 5.1319999999999997 S
atom 7.6979999999999995 5.1319999999999997 2.5659999999999998 Mg
atom 10.2639999999999993 7.6979999999999995 5.1319999999999997 S
atom 5.1319999999999997 0.0000000000000000 5.1319999999999997 Mg
atom 7.6979999999999995 2.5659999999999998 7.6979999999999995 S
atom 7.6979999999999995 2.5659999999999998 5.1319999999999997 Mg
atom 10.2639999999999993 5.1319999999999997 7.6979999999999995 S
atom 10.2639999999999993 5.1319999999999997 5.1319999999999997 Mg
atom 12.8299999999999983 7.6979999999999995 7.6979999999999995 S
atom 0.0000000000000000 2.5659999999999998 2.5659999999999998 Mg
atom 2.5659999999999998 5.1319999999999997 5.1319999999999997 S
atom 2.5659999999999998 5.1319999999999997 2.5659999999999998 Mg
atom 5.1319999999999997 7.6979999999999995 5.1319999999999997 S
atom 5.1319999999999997 7.6979999999999995 2.5659999999999998 Mg
atom 7.6979999999999995 10.2639999999999993 5.1319999999999997 S
atom 2.5659999999999998 2.5659999999999998 5.1319999999999997 Mg
atom 5.1319999999999997 5.1319999999999997 7.6979999999999995 S
atom 5.1319999999999997 5.1319999999999997 5.1319999999999997 Mg
atom 7.6979999999999995 7.6979999999999995 7.6979999999999995 S
atom 7.6979999999999995 7.6979999999999995 5.1319999999999997 Mg
atom 10.2639999999999993 10.2639999999999993 7.6979999999999995 S
atom 5.1319999999999997 2.5659999999999998 7.6979999999999995 Mg
atom 7.6979999999999995 5.1319999999999997 10.2639999999999993 S
atom 7.6979999999999995 5.1319999999999997 7.6979999999999995 Mg
atom 10.2639999999999993 7.6979999999999995 10.2639999999999993 S
atom 10.2639999999999993 7.6979999999999995 7.6979999999999995 Mg
atom 12.8299999999999983 10.2639999999999993 10.2639999999999993 S
atom 0.0000000000000000 5.1319999999999997 5.1319999999999997 Mg
atom 2.5659999999999998 7.6979999999999995 7.6979999999999995 S
atom 2.5659999999999998 7.6979999999999995 5.1319999999999997 Mg
atom 5.1319999999999997 10.2639999999999993 7.6979999999999995 S
atom 5.1319999999999997 10.2639999999999993 5.1319999999999997 Mg
atom 7.6979999999999995 12.8299999999999983 7.6979999999999995 S
atom 2.5659999999999998 5.1319999999999997 7.6979999999999995 Mg
atom 5.1319999999999997 7.6979999999999995 10.2639999999999993 S
atom 5.1319999999999997 7.6979999999999995 7.6979999999999995 Mg
atom 7.6979999999999995 10.2639999999999993 10.2639999999999993 S
atom 7.6979999999999995 10.2639999999999993 7.6979999999999995 Mg
atom 10.2639999999999993 12.8299999999999983 10.2639999999999993 S
atom 5.1319999999999997 5.1319999999999997 10.2639999999999993 Mg
atom 7.6979999999999995 7.6979999999999995 12.8299999999999983 S
atom 7.6979999999999995 7.6979999999999995 10.2639999999999993 Mg
atom 10.2639999999999993 10.2639999999999993 12.8299999999999983 S
atom 10.2639999999999993 10.2639999999999993 10.2639999999999993 Mg
atom 12.8299999999999983 12.8299999999999983 12.8299999999999983 S
