#=======================================================
#FHI-aims file: /home/ziletti/PycharmProjects/nomadml/tests/tmp_folder/CZuBrsUzsdX__rAeKn_JQgfX-YGoo_op_0_aims.in
#Created using the Atomic Simulation Environment (ASE)
#=======================================================
lattice_vector 0.0000000000000000 6.9540000000000006 6.9540000000000006 
lattice_vector 6.9540000000000006 0.0000000000000000 6.9540000000000006 
lattice_vector 6.9540000000000006 6.9540000000000006 0.0000000000000000 
atom 0.0000000000000000 0.0000000000000000 0.0000000000000000 Cd
atom 2.3180000000000001 2.3180000000000001 2.3180000000000001 O
atom 2.3180000000000001 2.3180000000000001 0.0000000000000000 Cd
atom 4.6360000000000001 4.6360000000000001 2.3180000000000001 O
atom 4.6360000000000001 4.6360000000000001 0.0000000000000000 Cd
atom 6.9540000000000006 6.9540000000000006 2.3180000000000001 O
atom 2.3180000000000001 0.0000000000000000 2.3180000000000001 Cd
atom 4.6360000000000001 2.3180000000000001 4.6360000000000001 O
atom 4.6360000000000001 2.3180000000000001 2.3180000000000001 Cd
atom 6.9540000000000006 4.6360000000000001 4.6360000000000001 O
atom 6.9540000000000006 4.6360000000000001 2.3180000000000001 Cd
atom 9.2720000000000002 6.9540000000000006 4.6360000000000001 O
atom 4.6360000000000001 0.0000000000000000 4.6360000000000001 Cd
atom 6.9540000000000006 2.3180000000000001 6.9540000000000006 O
atom 6.9540000000000006 2.3180000000000001 4.6360000000000001 Cd
atom 9.2720000000000002 4.6360000000000001 6.9540000000000006 O
atom 9.2720000000000002 4.6360000000000001 4.6360000000000001 Cd
atom 11.5899999999999999 6.9540000000000006 6.9540000000000006 O
atom 0.0000000000000000 2.3180000000000001 2.3180000000000001 Cd
atom 2.3180000000000001 4.6360000000000001 4.6360000000000001 O
atom 2.3180000000000001 4.6360000000000001 2.3180000000000001 Cd
atom 4.6360000000000001 6.9540000000000006 4.6360000000000001 O
atom 4.6360000000000001 6.9540000000000006 2.3180000000000001 Cd
atom 6.9540000000000006 9.2720000000000002 4.6360000000000001 O
atom 2.3180000000000001 2.3180000000000001 4.6360000000000001 Cd
atom 4.6360000000000001 4.6360000000000001 6.9540000000000006 O
atom 4.6360000000000001 4.6360000000000001 4.6360000000000001 Cd
atom 6.9540000000000006 6.9540000000000006 6.9540000000000006 O
atom 6.9540000000000006 6.9540000000000006 4.6360000000000001 Cd
atom 9.2720000000000002 9.2720000000000002 6.9540000000000006 O
atom 4.6360000000000001 2.3180000000000001 6.9540000000000006 Cd
atom 6.9540000000000006 4.6360000000000001 9.2720000000000002 O
atom 6.9540000000000006 4.6360000000000001 6.9540000000000006 Cd
atom 9.2720000000000002 6.9540000000000006 9.2720000000000002 O
atom 9.2720000000000002 6.9540000000000006 6.9540000000000006 Cd
atom 11.5899999999999999 9.2720000000000002 9.2720000000000002 O
atom 0.0000000000000000 4.6360000000000001 4.6360000000000001 Cd
atom 2.3180000000000001 6.9540000000000006 6.9540000000000006 O
atom 2.3180000000000001 6.9540000000000006 4.6360000000000001 Cd
atom 4.6360000000000001 9.2720000000000002 6.9540000000000006 O
atom 4.6360000000000001 9.2720000000000002 4.6360000000000001 Cd
atom 6.9540000000000006 11.5899999999999999 6.9540000000000006 O
atom 2.3180000000000001 4.6360000000000001 6.9540000000000006 Cd
atom 4.6360000000000001 6.9540000000000006 9.2720000000000002 O
atom 4.6360000000000001 6.9540000000000006 6.9540000000000006 Cd
atom 6.9540000000000006 9.2720000000000002 9.2720000000000002 O
atom 6.9540000000000006 9.2720000000000002 6.9540000000000006 Cd
atom 9.2720000000000002 11.5899999999999999 9.2720000000000002 O
atom 4.6360000000000001 4.6360000000000001 9.2720000000000002 Cd
atom 6.9540000000000006 6.9540000000000006 11.5899999999999999 O
atom 6.9540000000000006 6.9540000000000006 9.2720000000000002 Cd
atom 9.2720000000000002 9.2720000000000002 11.5899999999999999 O
atom 9.2720000000000002 9.2720000000000002 9.2720000000000002 Cd
atom 11.5899999999999999 11.5899999999999999 11.5899999999999999 O
