#=======================================================
#FHI-aims file: /home/leitherer/nomad/nomad-lab-base/apt/PROTOTYPES/2D_materials/P/P_P4.txt
#Created using the Atomic Simulation Environment (ASE)
#=======================================================
lattice_vector 4.6313880767517235 0.0000000000000000 0.0000000000000000 
lattice_vector 0.0000000000000000 3.3061782520907368 0.0000000000000000 
lattice_vector 0.0000000000000000 0.0000000000000000 17.1097929099999995 
atom 0.0394848048324178 -0.0002705686843065 7.4999064623694212 P
atom 0.8621756446531258 -0.0002633767226010 9.6098853552226799 P
atom 2.3554778241969156 1.6527723010757687 9.6098853170910576 P
atom 3.1781685703752585 1.6527794764300889 7.4999064339433961 P
