# A_oC8_64_f params=3.3136,3.16211974891,1.32070859488,0.10168,0.08056 SG#=64 [ANRL doi: 10.1016/j.commatsci.2017.01.017 (part 1), arXiv:1806.07864 (part 2)]
# AFLOW::AIMS BEGIN 
lattice_vector    1.65680000000000  -5.23899999999409   0.00000000000000
lattice_vector    1.65680000000000   5.23899999999409   0.00000000000000
lattice_vector    0.00000000000000   0.00000000000000   4.37629999999437
atom_frac   -0.10168000000000    0.10168000000000    0.08056000000000  P 
atom_frac    0.60168000000000    0.39832000000000    0.58056000000000  P 
atom_frac    0.39832000000000    0.60168000000000    0.41944000000000  P 
atom_frac    0.10168000000000   -0.10168000000000   -0.08056000000000  P 
# AFLOW::AIMS END 
