#=======================================================
#FHI-aims file: /home/leitherer/nomad/nomad-lab-base/apt/PROTOTYPES/Quaternaries/Cu2ZnSnS4/Cu2ZnSnS4_Cu4S8Sn2Zn2.txt
#Created using the Atomic Simulation Environment (ASE)
#=======================================================
lattice_vector 5.3823611549927994 0.0000000000000000 0.0000000000000000 
lattice_vector 0.0000000000000003 5.3823611549927994 0.0000000000000000 
lattice_vector 0.0000000000000007 0.0000000000000007 10.7587499477044926 
atom -0.0000000000000000 -0.0000000000000000 -0.0000000000000000 Cu
atom 2.6911805774964006 2.6911805774964002 5.3793749738522454 Cu
atom 2.6911805774964006 0.0000000000000005 8.0690622586606082 Cu
atom 0.0000000000000003 2.6911805774963993 2.6896876890438852 Cu
atom 2.6911805774963997 2.6911805774963997 -0.0000000000000000 Sn
atom 0.0000000000000003 0.0000000000000003 5.3793749738522454 Sn
atom 0.0000000000000007 2.6911805774964002 8.0690629072092008 Zn
atom 2.6911805774963997 0.0000000000000002 2.6896870404952860 Zn
atom 1.2547938654795510 4.0866653339820154 1.3963734832656021 S
atom 4.1275672895132471 1.2956958210107856 1.3963734832656021 S
atom 1.2956958210107863 1.2547938654795514 9.3623764644388885 S
atom 4.0866653339820171 4.1275672895132471 9.3623764644388885 S
atom 3.9459762299228101 1.3954839549632689 6.7757484810729895 S
atom 1.4363849250699932 3.9868772000295336 6.7757484810729895 S
atom 3.9868772000295349 3.9459762299228105 3.9830014666315039 S
atom 1.3954839549632687 1.4363849250699923 3.9830014666315039 S
