#=======================================================
#FHI-aims file: /home/leitherer/nomad/nomad-lab-base/apt/PROTOTYPES/2D_materials/WTe2/WTe2_Te4W2.txt
#Created using the Atomic Simulation Environment (ASE)
#=======================================================
lattice_vector 3.4915712301488333 0.0000000000000000 0.0000000000000000 
lattice_vector 0.0000000000000000 6.3135382415381276 0.0000000000000000 
lattice_vector -0.0000000000000000 0.0000000000000000 18.7339352295403572 
atom -0.0000000000000000 0.4532686500189381 9.4710995925920436 W
atom 1.7457856150744160 1.0776860708102203 11.4570433698994876 Te
atom -0.0000000000000002 2.0790833110743239 7.2768918900985264 Te
atom 1.7457856150744164 2.7035007365186168 9.2628356744387741 W
atom 3.4915712301488324 4.2811282557465171 10.8412494758859417 Te
atom 1.7457856150744162 5.1891793662303112 7.8926857937162715 Te
