#=======================================================
#FHI-aims file: /home/leitherer/nomad/nomad-lab-base/apt/PROTOTYPES/2D_materials/PbS/PbS_Pb2S2.txt
#Created using the Atomic Simulation Environment (ASE)
#=======================================================
lattice_vector 4.2428965712823228 0.0000000000000000 0.0000000000000000 
lattice_vector -0.0000000000000000 4.2410420358995893 0.0000000000000000 
lattice_vector 0.0000000000000000 0.0000000000000000 17.1097929099999995 
atom 0.4241538297436103 -0.0004916071182465 7.2796366607606178 S
atom 2.5450745153314105 2.1202860531132379 9.8298404293235340 S
atom 0.4016017409745885 -0.0004563671411949 9.9654646059515422 Pb
atom 2.5227631171599025 2.1202160128114724 7.1440536793889651 Pb
