#=======================================================
#FHI-aims file: /home/leitherer/nomad/nomad-lab-base/apt/PROTOTYPES/2D_materials/NiSe/NiSe_Ni2Se2.txt
#Created using the Atomic Simulation Environment (ASE)
#=======================================================
lattice_vector 3.6235910554234811 0.0000000000000000 0.0000000000000000 
lattice_vector -0.0000000000000000 3.6235842101662121 0.0000000000000000 
lattice_vector 0.0000000000000001 0.0000000000000000 17.4291209400000007 
atom 0.0000000000000000 -0.0003007894865945 8.7146181218652412 Ni
initial_moment         0.474164
atom 0.0000000000000004 1.8112977694492605 10.2650774760904984 Se
initial_moment         0.052018
atom 1.8117955320794907 1.8122921882111134 8.7144993040735770 Ni
initial_moment         0.474171
atom -0.0000000000000000 1.8113032083049256 7.1640550105675747 Se
initial_moment         0.052018
