# In/A_tI2_139_a.A params=3.25283,1.52061313499 SG=139 [ANRL doi: 10.1016/j.commatsci.2017.01.017 (part 1), doi: 10.1016/j.commatsci.2018.10.043 (part 2)]
# AFLOW::AIMS BEGIN 
lattice_vector   -1.62641500000000   1.62641500000000   2.47314801194476
lattice_vector    1.62641500000000  -1.62641500000000   2.47314801194476
lattice_vector    1.62641500000000   1.62641500000000  -2.47314801194476
atom_frac    0.00000000000000    0.00000000000000    0.00000000000000  In 
# AFLOW::AIMS END 
