#=======================================================
#FHI-aims file: /home/leitherer/nomad/nomad-lab-base/apt/PROTOTYPES/2D_materials/C3N/C3N_C6N2.txt
#Created using the Atomic Simulation Environment (ASE)
#=======================================================
lattice_vector 4.2070051149518450 2.4289404990640588 0.0000000000000000 
lattice_vector 4.2070051149518450 -2.4289404990640588 0.0000000000000000 
lattice_vector 0.0000000000000000 0.0000000000000000 15.0000000000000000 
atom 0.0003333167060082 0.0000000000000000 7.4999999996594848 C
atom 1.4025704532929901 -0.0000000000000001 7.5000000002162421 N
atom 2.1035293012068474 1.2144848250427209 7.5000000002180061 C
atom 2.1035293012068474 -1.2144848250427212 7.5000000002180061 C
atom 3.5058849652806487 1.2144865469057013 7.4999999996528137 C
atom 3.5058849652806487 -1.2144865469057016 7.4999999996528137 C
atom 4.2068362575828893 -0.0000000000000002 7.4999999996222657 N
atom 5.6090814724930427 -0.0000000000000002 7.5000000000031548 C
