#=======================================================
#FHI-aims file: /home/leitherer/nomad/nomad-lab-base/apt/PROTOTYPES/Ternaries/24_RP/24_RP_Cs4O8W2.txt
#Created using the Atomic Simulation Environment (ASE)
#=======================================================
lattice_vector 4.3407099999999996 0.0000000000000000 0.0000000000000000 
lattice_vector 0.0000000000000003 4.3407099999999996 0.0000000000000000 
lattice_vector 0.0000000000000009 0.0000000000000009 14.2479999999999993 
atom 0.0456208621000006 0.0000000000000006 9.4115164000000000 Cs
atom 0.0458813047000003 0.0000000000000003 4.8364835999999993 Cs
atom 2.2217924134999998 2.1703984070999995 2.2950678399999997 Cs
atom 2.2216187851000004 2.1703984071000004 11.9533595999999989 Cs
atom 0.2323147992000000 0.0000000000000000 0.0001424800000000 W
atom 2.4021055069000004 2.1703984071000000 7.1241424799999988 W
atom 0.1019198708000001 2.1703984070999995 0.0008548800000000 O
atom 2.1209143130999997 0.0000000000000000 0.0004274400000000 O
atom 2.2777875725000003 0.0000000000000004 7.1241424799999988 O
atom 4.2917901982999993 2.1703984071000000 7.1241424799999988 O
atom 4.1687310698000006 0.0000000000000008 12.3240925600000004 O
atom 4.1689915123999999 0.0000000000000001 1.9239074400000000 O
atom 1.9863957102000005 2.1703984071000000 5.2027996799999991 O
atom 1.9866127457000007 2.1703984071000000 9.0456277600000004 O
