# A_tP4_136_f params=3.957,1.29112964367,0.098 SG#=136 [ANRL doi: 10.1016/j.commatsci.2017.01.017 (part 1), arXiv:1806.07864 (part 2)]
# AFLOW::AIMS BEGIN 
lattice_vector    3.95700000000000   0.00000000000000   0.00000000000000
lattice_vector    0.00000000000000   3.95700000000000   0.00000000000000
lattice_vector    0.00000000000000   0.00000000000000   5.10900000000219
atom_frac    0.09800000000000    0.09800000000000    0.00000000000000  N 
atom_frac   -0.09800000000000   -0.09800000000000    0.00000000000000  N 
atom_frac    0.40200000000000    0.59800000000000    0.50000000000000  N 
atom_frac    0.59800000000000    0.40200000000000    0.50000000000000  N 
# AFLOW::AIMS END 
