#=======================================================
#FHI-aims file: /home/leitherer/nomad/nomad-lab-base/apt/PROTOTYPES/2D_materials/CrW3S8/CrW3S8_CrS8W3.txt
#Created using the Atomic Simulation Environment (ASE)
#=======================================================
lattice_vector 6.3214987624401031 0.0000000000000000 0.0000000000000000 
lattice_vector 0.0000000000000000 5.4700682740098152 0.0000000000000000 
lattice_vector 0.0000000000000000 0.0000000000000000 18.1641771338161924 
atom 0.0052921696659236 0.0061777115548569 9.0811641617721293 Cr
atom 3.1661509231206111 0.0013671957821230 9.0826126198072643 W
atom 1.5791891789050194 2.7403123081465126 9.0811956961443503 W
atom 4.7525006090273783 2.7402702359519928 9.0813668843440016 W
atom 0.0050350430944345 1.7679283064477618 7.5463662170722303 S
atom 1.5315660773704882 4.5901039860918429 10.6159935480753749 S
atom 0.0049873344946175 1.7674515182897190 10.6153609270722082 S
atom 1.5325659520826704 4.5908388676974914 7.5473945994495697 S
atom 3.1658628233594612 1.8319986922004254 7.5000000000000000 S
atom 4.8009605414249217 4.5901794825071232 10.6161204091904686 S
atom 3.1658373541684273 1.8334142241716098 10.6641771338161924 S
atom 4.7998927452081546 4.5906080468999235 7.5477916888541703 S
