#=======================================================
#FHI-aims file: /home/leitherer/nomad/nomad-lab-base/apt/PROTOTYPES/2D_materials/GeS2/GeS2_GeS2.txt
#Created using the Atomic Simulation Environment (ASE)
#=======================================================
lattice_vector 3.5161698348772261 -0.0000000000000000 0.0000000000000000 
lattice_vector -0.0000000000000000 3.5161698388895903 0.0000000000000000 
lattice_vector -0.0000000000000000 0.0000000000000000 18.1819805153394647 
atom -0.0000000000000000 0.0000000000000000 9.0909902555185589 Ge
atom 0.0000000000000001 1.7580849194447952 10.5173938889830101 S
atom 1.7580849174386131 0.0000000000000000 7.6645866267798199 S
