#=======================================================
#FHI-aims file: /home/leitherer/nomad/nomad-lab-base/apt/PROTOTYPES/2D_materials/FeSe/FeSe_Fe2Se2.txt
#Created using the Atomic Simulation Environment (ASE)
#=======================================================
lattice_vector 3.7165209955795198 0.0000000000000000 0.0000000000000000 
lattice_vector -0.0000000000000000 3.7165209850715821 0.0000000000000000 
lattice_vector -0.0000000000000000 0.0000000000000000 17.9100000000000001 
atom -0.0000000000000000 0.0000000000000000 8.9549999376222100 Fe
initial_moment         1.867983
atom 1.8582604977897597 1.8582604925357908 8.9549999315146138 Fe
initial_moment        -1.867983
atom -0.0000000000000000 1.8582604925357908 7.4945284012066775 Se
initial_moment         0.000000
atom 1.8582604977897597 -0.0000000000000000 10.4154717579211287 Se
initial_moment        -0.000000
