#=======================================================
#FHI-aims file: /home/leitherer/nomad/nomad-lab-base/apt/PROTOTYPES/Quaternaries/Cu2BaGeSe4/Cu2BaGeSe4_Ba3Cu6Ge3Se12.txt
#Created using the Atomic Simulation Environment (ASE)
#=======================================================
lattice_vector 6.4793005646178825 -0.0001099886905032 0.0000131154430414 
lattice_vector -3.2397455353693942 5.6111821235660582 -0.0000134813293020 
lattice_vector 0.0000333849344503 -0.0000203047961903 16.1201314228711148 
atom -0.3038057102035415 1.8700381851863550 10.7402520911620467 Ba
atom -1.4681481698253311 4.9392223587713007 5.3670817720398150 Ba
atom 1.7716410036580459 4.4128703599553267 -0.0060745451717905 Ba
atom 1.7495663964451162 4.8732948145847699 6.1853192753859512 Se
atom 0.1060398437886753 1.6590998853336538 0.8118599509393967 Se
atom -1.8557878450410650 4.6896070562209715 11.5587962445741059 Se
atom 1.4098787086413396 1.2630525802049184 8.0044287852485798 Se
atom 3.6286479088427206 3.7586255345388535 2.6312732067347726 Se
atom 4.6805311112106622 0.5893195237227846 13.3780212565456988 Se
atom 1.3836152915527893 4.6617999570323247 9.9230754189640180 Se
atom 0.1057177143773017 2.0817693548158869 4.5496161031490132 Se
atom -1.4897904346331334 4.4785907895461543 15.2962576877806260 Se
atom 2.3072437414461713 3.4852748085948000 8.0541051087698250 Ge
atom 5.1043720846889924 1.8703154262654504 2.6807194414364011 Ge
atom 2.3073378169335874 0.2555910005002326 13.4274784747402709 Ge
atom -1.7988264724374172 3.1519294328757068 8.1030959849498370 Se
atom 0.3891353058974293 5.5930061369108186 2.7299398246160984 Se
atom 1.4093868587997991 2.4775365760332990 13.4764930095406186 Se
atom 1.5923461634158613 3.8736133414020060 3.9411050189930643 Cu
atom -0.6810182684415181 2.2954229514004556 14.6878986094259893 Cu
atom -0.9114538548375076 5.0535535916953478 9.3145906127468230 Cu
atom 2.3284253713353711 4.2987118472549346 12.1673455774669907 Cu
atom -0.6811795289926236 1.4454308097821618 6.7940082614721389 Cu
atom -1.6472220231008001 5.4783620758459728 1.4205092182522570 Cu
