# AB_cF8_216_c_a params=5.4093 SG#=216 [ANRL doi: 10.1016/j.commatsci.2017.01.017 (part 1), arXiv:1806.07864 (part 2)]
# AFLOW::AIMS BEGIN 
lattice_vector    0.00000000000000   2.70465000000000   2.70465000000000
lattice_vector    2.70465000000000   0.00000000000000   2.70465000000000
lattice_vector    2.70465000000000   2.70465000000000   0.00000000000000
atom_frac    0.25000000000000    0.25000000000000    0.25000000000000  S 
atom_frac    0.00000000000000    0.00000000000000    0.00000000000000  Zn 
# AFLOW::AIMS END 
