# A_hP2_194_c params=3.2093,1.62359393014 SG#=194 [ANRL doi: 10.1016/j.commatsci.2017.01.017 (part 1), arXiv:1806.07864 (part 2)]
# AFLOW::AIMS BEGIN 
lattice_vector    1.60465000000000  -2.77933532836540   0.00000000000000
lattice_vector    1.60465000000000   2.77933532836540   0.00000000000000
lattice_vector    0.00000000000000   0.00000000000000   5.21059999999830
atom_frac    0.33333333333333    0.66666666666667    0.25000000000000  Mg 
atom_frac    0.66666666666667    0.33333333333333    0.75000000000000  Mg 
# AFLOW::AIMS END 
