# AB_cF8_225_a_b params=5.63931 SG#=225 [ANRL doi: 10.1016/j.commatsci.2017.01.017 (part 1), arXiv:1806.07864 (part 2)]
# AFLOW::AIMS BEGIN 
lattice_vector    0.00000000000000   2.81965500000000   2.81965500000000
lattice_vector    2.81965500000000   0.00000000000000   2.81965500000000
lattice_vector    2.81965500000000   2.81965500000000   0.00000000000000
atom_frac    0.00000000000000    0.00000000000000    0.00000000000000  Cl 
atom_frac    0.50000000000000    0.50000000000000    0.50000000000000  Na 
# AFLOW::AIMS END 
