# A_hR2_166_c params=3.7595,2.7815666977,0.22754 SG#=166 [ANRL doi: 10.1016/j.commatsci.2017.01.017 (part 1), arXiv:1806.07864 (part 2)]
# AFLOW::AIMS BEGIN 
lattice_vector    1.87975000000000  -1.08527416850920   3.48576666666772
lattice_vector    0.00000000000000   2.17054833701840   3.48576666666772
lattice_vector   -1.87975000000000  -1.08527416850920   3.48576666666772
atom_frac    0.22754000000000    0.22754000000000    0.22754000000000  As 
atom_frac   -0.22754000000000   -0.22754000000000   -0.22754000000000  As 
# AFLOW::AIMS END 
