# AB_cP2_221_b_a params=4.07925 SG#=221 [ANRL doi: 10.1016/j.commatsci.2017.01.017 (part 1), arXiv:1806.07864 (part 2)]
# AFLOW::AIMS BEGIN 
lattice_vector    4.07925000000000   0.00000000000000   0.00000000000000
lattice_vector    0.00000000000000   4.07925000000000   0.00000000000000
lattice_vector    0.00000000000000   0.00000000000000   4.07925000000000
atom_frac    0.50000000000000    0.50000000000000    0.50000000000000  Cl 
atom_frac    0.00000000000000    0.00000000000000    0.00000000000000  Cs 
# AFLOW::AIMS END 

