# A_cF8_227_a params=3.55 SG#=227 [ANRL doi: 10.1016/j.commatsci.2017.01.017 (part 1), arXiv:1806.07864 (part 2)]
# AFLOW::AIMS BEGIN 
lattice_vector    0.00000000000000   1.77500000000000   1.77500000000000
lattice_vector    1.77500000000000   0.00000000000000   1.77500000000000
lattice_vector    1.77500000000000   1.77500000000000   0.00000000000000
atom_frac    0.12500000000000    0.12500000000000    0.12500000000000  C 
atom_frac    0.87500000000000    0.87500000000000    0.87500000000000  C 
# AFLOW::AIMS END 
