# A_hP4_194_bc params=2.464,2.72362012987 SG#=194 [ANRL doi: 10.1016/j.commatsci.2017.01.017 (part 1), arXiv:1806.07864 (part 2)]
# AFLOW::AIMS BEGIN 
lattice_vector    1.23200000000000  -2.13388659492486   0.00000000000000
lattice_vector    1.23200000000000   2.13388659492486   0.00000000000000
lattice_vector    0.00000000000000   0.00000000000000   6.71099999999968
atom_frac    0.00000000000000    0.00000000000000    0.25000000000000  C 
atom_frac    0.00000000000000    0.00000000000000    0.75000000000000  C 
atom_frac    0.33333333333333    0.66666666666667    0.25000000000000  C 
atom_frac    0.66666666666667    0.33333333333333    0.75000000000000  C 
# AFLOW::AIMS END 

