# A_oC8_64_f params=4.523,1.69378730931,1.0002210922,0.1549,0.081 SG#=64 [ANRL doi: 10.1016/j.commatsci.2017.01.017 (part 1), arXiv:1806.07864 (part 2)]
# AFLOW::AIMS BEGIN 
lattice_vector    2.26150000000000  -3.83050000000456   0.00000000000000
lattice_vector    2.26150000000000   3.83050000000456   0.00000000000000
lattice_vector    0.00000000000000   0.00000000000000   4.52400000002060
atom_frac   -0.15490000000000    0.15490000000000    0.08100000000000  Ga 
atom_frac    0.65490000000000    0.34510000000000    0.58100000000000  Ga 
atom_frac    0.34510000000000    0.65490000000000    0.41900000000000  Ga 
atom_frac    0.15490000000000   -0.15490000000000   -0.08100000000000  Ga 
# AFLOW::AIMS END 
