# A_cI2_229_a params=3.155 SG#=229 [ANRL doi: 10.1016/j.commatsci.2017.01.017 (part 1), arXiv:1806.07864 (part 2)]
# AFLOW::AIMS BEGIN 
lattice_vector   -1.57750000000000   1.57750000000000   1.57750000000000
lattice_vector    1.57750000000000  -1.57750000000000   1.57750000000000
lattice_vector    1.57750000000000   1.57750000000000  -1.57750000000000
atom_frac    0.00000000000000    0.00000000000000    0.00000000000000  W 
# AFLOW::AIMS END 
