# A_oF8_70_a params=3.1587,1.82613100326,3.21714629436 SG#=70 [ANRL doi: 10.1016/j.commatsci.2017.01.017 (part 1), arXiv:1806.07864 (part 2)]
# AFLOW::AIMS BEGIN 
lattice_vector    0.00000000000000   2.88409999999868   5.08099999999747
lattice_vector    1.57935000000000   0.00000000000000   5.08099999999747
lattice_vector    1.57935000000000   2.88409999999868   0.00000000000000
atom_frac    0.12500000000000    0.12500000000000    0.12500000000000  Pu 
atom_frac    0.87500000000000    0.87500000000000    0.87500000000000  Pu 
# AFLOW::AIMS END 
