#=======================================================
#FHI-aims file: /home/leitherer/nomad/nomad-lab-base/apt/PROTOTYPES/2D_materials/FeOCl/FeOCl_Cl2Fe2O2.txt
#Created using the Atomic Simulation Environment (ASE)
#=======================================================
lattice_vector 3.7161175051149185 0.0000000000000000 0.0000000000000000 
lattice_vector -0.0000000000000000 3.1758528477305514 0.0000000000000000 
lattice_vector 0.0000000000000000 0.0000000000000000 21.3418059620366662 
atom 1.8580587525574588 0.0000000000000003 9.8220183520149593 Fe
initial_moment         1.115771
atom -0.0000000000000000 1.5879264238652757 11.5198336183061656 Fe
initial_moment        -1.115620
atom 1.8580587525574588 1.5879264238652757 11.0807106637326438 O
initial_moment        -0.053006
atom 0.0000000000000000 -0.0000000000000000 10.2611227071945184 O
initial_moment         0.053004
atom 1.8580587525574588 1.5879264238652757 8.2471591077422381 Cl
initial_moment         0.015135
atom 0.0000000000000000 -0.0000000000000000 13.0947296830995885 Cl
initial_moment        -0.015120
