# A_hR1_166_a params=3.45741,1.92728082582 SG#=166 [ANRL doi: 10.1016/j.commatsci.2017.01.017 (part 1), arXiv:1806.07864 (part 2)]
# AFLOW::AIMS BEGIN 
lattice_vector    1.72870500000000  -0.99806829709945   2.22113333333278
lattice_vector    0.00000000000000   1.99613659419890   2.22113333333278
lattice_vector   -1.72870500000000  -0.99806829709945   2.22113333333278
atom_frac    0.00000000000000    0.00000000000000    0.00000000000000  Hg 
# AFLOW::AIMS END 
