#=======================================================
#FHI-aims file: /home/leitherer/nomad/nomad-lab-base/apt/PROTOTYPES/2D_materials/MnS2/MnS2_Mn2S4.txt
#Created using the Atomic Simulation Environment (ASE)
#=======================================================
lattice_vector 5.6906677090358952 0.0000000000000000 0.0000000000000000 
lattice_vector 0.0000000000000000 5.6906587613867048 0.0000000000000000 
lattice_vector -0.0000000000000000 -0.0000000000000000 16.3359055923905032 
atom 2.8453338527863039 -0.0000000014070046 8.1679527879679785 Mn
initial_moment         2.736542
atom 0.0000000069770714 2.8453293930746382 8.1679527937316063 Mn
initial_moment        -2.736542
atom 0.7835342881187080 0.7835314735012681 8.1674433433681894 S
initial_moment        -0.000000
atom 3.6288681494257022 2.0617979255289152 8.1684622475391500 S
initial_moment         0.000000
atom 4.9071334188291571 4.9071272994776916 8.1684622202900563 S
initial_moment        -0.000000
atom 2.0617995524479151 3.6288608422598920 8.1674433621689850 S
initial_moment         0.000000
