#=======================================================
#FHI-aims file: /home/leitherer/nomad/nomad-lab-base/apt/PROTOTYPES/2D_materials/VTe3/VTe3_Te6V2.txt
#Created using the Atomic Simulation Environment (ASE)
#=======================================================
lattice_vector 6.2098385905092375 -0.0000000000000000 0.0000000000000000 
lattice_vector 0.0000000000000000 3.5627919984285814 0.0000000000000000 
lattice_vector 0.0000000000000000 -0.0000000000000000 21.6583493881351075 
atom 3.3395373560920034 0.8906979946913930 12.6188433882382967 V
initial_moment         0.605891
atom 1.4010022187015769 2.6720939931836694 9.0400447496006358 V
initial_moment        -0.608725
atom 0.9870594314954487 0.8906979929430522 11.1079803024181203 Te
initial_moment         0.027574
atom 3.7531765931745116 2.6720939940735002 10.5509239284099099 Te
initial_moment        -0.027373
atom 2.7963206401152587 0.8906979938891642 7.4990435215222364 Te
initial_moment         0.023137
atom 1.9439994084746277 2.6720939955679173 14.1592288548467753 Te
initial_moment        -0.023091
atom -0.1772826031763519 0.8906979947027530 7.6748534710327156 Te
initial_moment         0.028602
atom 4.9179358243201197 2.6720939931145113 13.9837812885531658 Te
initial_moment        -0.028399
