#=======================================================
#FHI-aims file: /home/leitherer/nomad/nomad-lab-base/apt/PROTOTYPES/2D_materials/HfBrS/HfBrS_Br4Hf4S4.txt
#Created using the Atomic Simulation Environment (ASE)
#=======================================================
lattice_vector 7.0941103037172581 0.0000000000000000 0.0000000000000000 
lattice_vector -3.5470551518586273 6.1860841943047991 0.0000000000000000 
lattice_vector -0.0000000000000000 0.0000000000000000 18.7453591010354224 
atom 0.0078221656961964 -0.0070311121041033 9.3823491596389506 Hf
initial_moment         0.322077
atom 1.7643734952463368 1.0388759672049368 10.8409526076319356 S
initial_moment         0.017732
atom 1.7748586181046708 1.0301841109532202 7.4929667906132797 Br
initial_moment         0.002035
atom -1.7657053434418357 3.0860109639848967 9.3630100071051334 Hf
initial_moment         0.322077
atom 0.0013310495663121 4.1232262014861760 11.2523924367730945 Br
initial_moment         0.002035
atom -0.0091541231753829 4.1319181103866152 7.9044065094458382 S
initial_moment         0.017732
atom 3.5548773812769019 -0.0070311357835238 9.3630100050818896 Hf
initial_moment         0.322077
atom 5.3219137774495717 1.0301841038536601 11.2523924355754836 Br
initial_moment         0.002035
atom 5.3114286033799383 1.0388760137219997 7.9044065114746829 S
initial_moment         0.017732
atom 1.7813497442705604 3.0860109861565936 9.3823491589139305 Hf
initial_moment         0.322077
atom 3.5379010710328864 4.1319180647174010 10.8409526071514790 S
initial_moment         0.017732
atom 3.5483861938727368 4.1232262074515287 7.4929667909724724 Br
initial_moment         0.002035
