#=======================================================
#FHI-aims file: /home/leitherer/nomad/nomad-lab-base/apt/PROTOTYPES/2D_materials/ReS2/ReS2_Re4S8.txt
#Created using the Atomic Simulation Environment (ASE)
#=======================================================
lattice_vector 6.4072593248372671 -0.0000000000000000 0.0000000000000000 
lattice_vector -3.1535675764444515 5.7005973786933763 0.0000000000000000 
lattice_vector 0.0000000000000000 0.0000000000000000 18.4418644365741287 
atom 0.0067106534562321 0.0106509202155060 9.1654256111432950 Re
atom 4.4460273560288437 2.1531602151375013 9.2764386474933005 Re
atom 1.6268498501216559 2.3008674849094155 9.2350258928780420 Re
atom -0.3276793964211070 5.5635409529874087 9.2068387313734465 Re
atom 1.4821551915892435 0.7442800745493531 7.4703882278598073 S
atom 2.9705845784664939 1.4195329021886112 10.9714763874197079 S
atom 3.1263640599743514 3.5547806548261778 7.8665515754005959 S
atom -1.8271919471777891 4.3096296161659229 10.5753134596499923 S
atom -0.1313629696601986 1.6712579335606588 10.7917455147227539 S
atom 4.5841024444685727 0.4925552380218381 7.6501184192916893 S
atom 1.5206206237943192 4.4800975578516100 10.4044478647989980 S
atom -0.2214487614378857 3.3843127144333511 8.0374166443518842 S
