#=======================================================
#FHI-aims file: /home/leitherer/nomad/nomad-lab-base/apt/PROTOTYPES/2D_materials/AgBr3/AgBr3_Ag2Br6.txt
#Created using the Atomic Simulation Environment (ASE)
#=======================================================
lattice_vector 7.1339113837120260 -0.0000000000000000 0.0000000000000000 
lattice_vector -3.5669556918560144 6.1781484866411569 0.0000000000000000 
lattice_vector 0.0000000000000000 0.0000000000000000 18.5035258246994374 
atom 3.5669556918560086 2.0593828288803881 9.2520046952842137 Ag
initial_moment         1.000000
atom 0.0000000000000014 4.1187656577607763 9.2515267644757841 Ag
initial_moment         1.000000
atom 3.5767904503833874 -0.0003411963766395 7.5132579443907748 Br
initial_moment         1.000000
atom 1.7782649819343388 3.0807276907840095 7.5132579443907748 Br
initial_moment         1.000000
atom -1.7880997404620054 3.0977619922338966 7.5132579443907748 Br
initial_moment         1.000000
atom 3.5767901476983202 0.0002856708469028 10.9902657256458713 Br
initial_moment         1.000000
atom 1.7788080162171975 3.0804145193050085 10.9902657256458713 Br
initial_moment         1.000000
atom -1.7886424720596588 3.0974482964891128 10.9902657256458713 Br
initial_moment         1.000000
