#=======================================================
#FHI-aims file: /home/leitherer/nomad/nomad-lab-base/apt/PROTOTYPES/2D_materials/PbSe/PbSe_Pb2Se2.txt
#Created using the Atomic Simulation Environment (ASE)
#=======================================================
lattice_vector 5.9727401641585471 -0.0000000000000000 0.0000000000000000 
lattice_vector 0.0000000000000000 5.9727401641585471 0.0000000000000000 
lattice_vector 0.0000000000000000 0.0000000000000000 15.0000003412476346 
atom 0.0000000000000000 -0.0000000000000001 7.5000000007584893 Pb
atom 2.9863700820792740 2.9863700820792740 7.5000000000000000 Pb
atom 2.9863700820792740 0.0000000000000000 7.5000003412476364 Se
atom -0.0000000000000000 2.9863700820792740 7.5000003412476364 Se
