#=======================================================
#FHI-aims file: /home/leitherer/nomad/nomad-lab-base/apt/PROTOTYPES/2D_materials/GaS/GaS_Ga2S2.txt
#Created using the Atomic Simulation Environment (ASE)
#=======================================================
lattice_vector 3.6453275278461090 0.0000000000000000 0.0000000000000000 
lattice_vector -1.8226637639230545 3.1569462442294558 0.0000000000000000 
lattice_vector 0.0000000000000000 0.0000000000000000 19.6653595807017787 
atom 1.8226637639230543 1.0523154147431517 8.5933205097292387 Ga
atom 1.8226637639230543 1.0523154147431517 11.0720390709725915 Ga
atom -0.0000000000000000 2.1046308294863034 7.4992929243650863 S
atom -0.0000000000000000 2.1046308294863034 12.1660666563365858 S
