# A_cP1_221_a params=3.34 SG#=221 [ANRL doi: 10.1016/j.commatsci.2017.01.017 (part 1), arXiv:1806.07864 (part 2)]
# AFLOW::AIMS BEGIN 
lattice_vector    3.34000000000000   0.00000000000000   0.00000000000000
lattice_vector    0.00000000000000   3.34000000000000   0.00000000000000
lattice_vector    0.00000000000000   0.00000000000000   3.34000000000000
atom_frac    0.00000000000000    0.00000000000000    0.00000000000000  Po 
# AFLOW::AIMS END 
