#=======================================================
#FHI-aims file: /home/leitherer/nomad/nomad-lab-base/apt/PROTOTYPES/2D_materials/PbA2I4/PbA2I4_C16H48Br4Cl4Ge2N4.txt
#Created using the Atomic Simulation Environment (ASE)
#=======================================================
lattice_vector 7.6229132711965351 0.0000000000000000 0.0000000000000000 
lattice_vector 0.0000000000000000 7.5644412318331495 0.0000000000000000 
lattice_vector 0.0000000000000000 0.0000000000000000 30.0745758290071308 
atom 0.3011544604572739 3.5110161362194328 11.8439779266406937 C
atom 4.1157030244280035 0.2729376116783903 18.2309937308341716 C
atom 7.3094959446655992 4.0495658606643277 18.2471925583727348 C
atom 3.4938310014593337 7.2991943865206377 11.8293854696581349 C
atom 0.1346651391053024 2.4898519848641882 12.1796850714434228 H
atom 3.9515742371292584 1.2943364299479607 17.8949398063858176 H
atom 7.4693343469548141 5.0715433593989641 17.9101503066397321 H
atom 3.6525279435514935 6.2773900700772352 12.1675500172793498 H
atom 1.3061817033667202 3.8063228794781350 12.1360847618802268 H
atom 5.1204956542412798 7.5398093701519286 17.9400679923449218 H
atom 6.2988692669660571 3.7544415600015761 17.9747474213366552 H
atom 2.4829240447364769 0.0309881247252588 12.0995901394342216 H
atom 0.0920317382302094 3.6434510180421165 10.3446816570200539 C
atom 3.9052404083933805 0.1403442730240275 19.7300854470268803 C
atom 7.5493628005234843 3.9148182876426620 19.7420204646532511 C
atom 3.7364849551152428 7.4326175903514509 10.3347851904928145 C
atom 0.2335778600772568 4.6878447245479604 10.0439155841097190 H
atom 4.0467883109119631 6.6604102489102308 20.0309386568886865 H
atom 7.4140058836114422 2.8702372200299915 20.0443387277317093 H
atom 3.6021900407886247 0.9126473999108029 10.0314943250794553 H
atom 6.6821251943642768 3.3735063907797311 10.0903528868212859 H
atom 2.8719876100375830 0.4096946470463354 19.9835244326589994 H
atom 0.9644483292132661 4.1839317139865653 19.9747235037839594 H
atom 4.7747710962431791 7.1630743570361330 10.1039561587790256 H
atom 1.0665678401729766 2.7431187797745245 9.5796607507933231 C
atom 4.8789010673922961 1.0406960563896843 20.4960380912981606 C
atom 6.5920947595104176 4.8151994402610949 20.5275173097790216 C
atom 2.7804028471164277 6.5322180819807478 9.5480401289696299 C
atom 0.9059388284576982 1.7066524925070563 9.8922575385399245 H
atom 4.7184896205097635 2.0771930390471751 20.1835221768749236 H
atom 6.7487739117376258 5.8516779652675783 20.2120390864849853 H
atom 2.9364332453965520 5.4958426302808112 9.8640723814816287 H
atom 2.0895473222281615 3.0006825799208632 9.8709277945694591 H
atom 5.9021081473992325 0.7831078045200388 20.2054707102533655 H
atom 5.5621716290616101 4.5607816713189813 20.2576155628761398 H
atom 1.7500094369896917 6.7869573875937288 9.8160087601364978 H
atom 0.9119175566451290 2.8598896682267791 8.0654128502417048 C
atom 4.7229504892062186 0.9236120078784634 22.0101089554536564 C
atom 6.7804172609227020 4.6990866786620380 22.0381106208483502 C
atom 2.9715352053410364 6.6478772480845869 8.0377667214189152 C
atom 7.5285468520270911 2.5718380745533147 7.7495172977377411 H
atom 3.7162337673170618 1.2110230919004352 22.3251006832732344 H
atom 0.1725771318260078 4.9826062218214515 22.3295091927240215 H
atom 3.9871669309532298 6.3643777974278608 7.7483445734581746 H
atom 1.6230557800019203 2.2155122661797773 7.5437072100989671 H
atom 5.4332869060028113 1.5681109099432862 22.5327435591481020 H
atom 6.0850614097724387 5.3483987641910726 22.5745758290071308 H
atom 2.2775589873313207 5.9982109389989153 7.5000000000000000 H
atom 1.0857801124070603 3.8855931578627834 7.7311694658999244 H
atom 4.8969302545572111 7.4623569708565380 22.3442625694690484 H
atom 6.6100040923368306 3.6751504218163245 22.3789958457986167 H
atom 2.8017143869309922 0.1072903094081365 7.6963107980838181 H
atom 6.9760499002105023 4.3798338294420285 12.5978854997463312 N
atom 3.1673567112515468 6.9695227679259526 17.4761272208666405 N
atom 0.6195142155347189 3.1822812310577571 17.4732676600048045 N
atom 4.4262491091484781 0.6019183373627855 12.6038758755637854 N
atom 7.1366497602414611 5.3825910780303179 12.4005387561754539 H
atom 3.3276479319967023 5.9667303641717631 17.6747893982561948 H
atom 0.4603675125618357 2.1782228176310889 17.6692767628725207 H
atom 4.2681335431207135 1.6058883836610427 12.4074568610957492 H
atom 7.1024845024441605 4.2533867692269496 13.6039069401239097 H
atom 3.2959992723533160 7.0945586388853297 16.4702793596509380 H
atom 0.4772069159835644 3.3126637906184571 16.4700464474239858 H
atom 4.2841788699809991 0.4712838705256871 13.6070794163628079 H
atom 5.9876324110723029 4.1532796868702597 12.3884746589122265 H
atom 2.1787532335502324 7.1966188494994121 17.6839536844952860 H
atom 1.6108737933566923 3.4061948913402422 17.6688130758305384 H
atom 5.4178320186723221 0.3779064679126985 12.4084447044825854 H
atom 3.6778678678880281 3.8775108543443282 17.7991572734042158 Cl
atom 7.4741588908071304 7.4830308491329598 12.2786698252473041 Cl
atom 3.9316037166802387 3.6890151794067658 12.2735348317678490 Cl
atom 0.1210268818257524 0.0937958555490337 17.8001928234349194 Cl
atom 5.3163447516545617 6.0417618720250683 15.1262833603172417 Br
atom 1.5037942604441119 5.3064169845044393 14.9472497777467375 Br
atom 2.2439501239767017 1.5093487933002401 14.9340558251731323 Br
atom 6.0551602050070379 2.2753626580722024 15.1435453653139120 Br
atom 3.8138496104128232 3.7886143938767174 15.0424209792541355 Ge
atom 7.6241443949935803 7.5600111882262802 15.0325982703510341 Ge
