#=======================================================
#FHI-aims file: /home/leitherer/nomad/nomad-lab-base/apt/PROTOTYPES/2D_materials/SnS/SnS_S2Sn2.txt
#Created using the Atomic Simulation Environment (ASE)
#=======================================================
lattice_vector 4.3246835655369038 0.0000000000000000 0.0000000000000000 
lattice_vector -0.0000000000000000 4.0638114748418088 0.0000000000000000 
lattice_vector 0.0000000000000001 0.0000000000000000 17.1097929099999995 
atom 0.2353441867726663 -0.0003408312477379 7.4223940313567400 S
atom 2.3979490432972033 2.0315363214781170 9.6875225710272588 S
atom 0.5989765841735146 -0.0003538076546983 9.9867392102502670 Sn
atom 2.7615640910156034 2.0315432115063068 7.1230775663216432 Sn
