#=======================================================
#FHI-aims file: /home/leitherer/nomad/nomad-lab-base/apt/PROTOTYPES/Quaternaries/Cu2CdGeS4/Cu2CdGeS4_Cd2Cu4Ge2S8.txt
#Created using the Atomic Simulation Environment (ASE)
#=======================================================
lattice_vector 7.6419739630647436 0.0000000000000000 0.0000000000000000 
lattice_vector 0.0000000000000004 6.5071268680254324 0.0000000044938825 
lattice_vector 0.0000000000000004 0.0000000042910021 6.2541236470934125 
atom 5.7414315018248994 4.3726116043728043 3.0993237904271376 Cu
atom 1.9005424612398418 4.3726116043728043 3.0993237904271380 Cu
atom 5.7215294470123057 2.1345152699369772 -0.0277380327827777 Cu
atom 1.9204445160524313 2.1345152699369772 -0.0277380327827776 Cu
atom 3.8209869815323700 1.0208962417167498 3.0852110768338252 Cd
atom 0.0000000000000007 5.4862306348106653 6.2122728919337336 Cd
atom 3.8209869815323714 5.3593117290995291 6.1980712598580991 Ge
atom 0.0000000000000002 1.1478151490117927 3.0710094327679518 Ge
atom 5.6023210024048762 4.2506707777441362 5.3645131603458021 S
atom 2.0396529606598670 4.2506707777441362 5.3645131603458021 S
atom 5.8606399414526740 2.2564560997401637 2.2374513361428261 S
atom 1.7813340216120646 2.2564560997401637 2.2374513361428261 S
atom 3.8209869815323709 5.1788151643960427 2.2005484597157672 S
atom 0.0000000000000003 1.3283117154605355 5.3276102771118961 S
atom 3.8209869815323709 1.0341211773092880 5.6037768571900681 S
atom 0.0000000000000004 5.4730057030371349 2.4767150346033082 S
