# A_hP4_194_f params=2.508,1.66786283892,0.05995 SG#=194 [ANRL doi: 10.1016/j.commatsci.2017.01.017 (part 1), arXiv:1806.07864 (part 2)]
# AFLOW::AIMS BEGIN 
lattice_vector    1.25400000000000  -2.17199171269137   0.00000000000000
lattice_vector    1.25400000000000   2.17199171269137   0.00000000000000
lattice_vector    0.00000000000000   0.00000000000000   4.18300000001136
atom_frac    0.33333333333333    0.66666666666667    0.05995000000000  C 
atom_frac    0.66666666666667    0.33333333333333    0.55995000000000  C 
atom_frac    0.66666666666667    0.33333333333333   -0.05995000000000  C 
atom_frac    0.33333333333333    0.66666666666667    0.44005000000000  C 
# AFLOW::AIMS END 
