#=======================================================
#FHI-aims file: /home/leitherer/nomad/nomad-lab-base/apt/PROTOTYPES/2D_materials/VPSe3/VPSe3_P2Se6V2.txt
#Created using the Atomic Simulation Environment (ASE)
#=======================================================
lattice_vector 6.2735932237982999 0.0000000000000005 0.0000000000000000 
lattice_vector -3.1367966118991490 5.6259895796533446 0.0000000000000000 
lattice_vector 0.0000000000000000 0.0000000000000000 18.4116428452021843 
atom 0.1221619762721372 -0.0824428618691643 9.1511683289938084 V
initial_moment         1.997129
atom -0.1285325614785621 3.8402195070572738 9.1476761319016049 V
initial_moment         1.990131
atom 3.1550909716223194 1.8908816121835645 8.3416057224815194 P
initial_moment         0.043743
atom 3.1155655736020682 1.8457592809879166 10.5747878322458373 P
initial_moment        -0.006785
atom 2.1096751389363759 0.0284613471460403 7.5242338792482473 Se
initial_moment        -0.039247
atom 5.2689423197350269 1.8665433605412574 7.6111379386850198 Se
initial_moment        -0.026431
atom 2.0854907092640089 3.7350555375635941 7.6075649239238459 Se
initial_moment        -0.025064
atom 4.2966363667458660 4.0028055978327233 10.7852151159556726 Se
initial_moment        -0.105501
atom 0.7732099231145396 1.8746209543285062 10.6594938541395710 Se
initial_moment        -0.074709
atom 4.2960987292018693 -0.2482659962637880 10.6557933172202510 Se
initial_moment        -0.086289
