#=======================================================
#FHI-aims file: /home/leitherer/nomad/nomad-lab-base/apt/PROTOTYPES/2D_materials/Ti2CH2O2/Ti2CH2O2_CH2O2Ti2.txt
#Created using the Atomic Simulation Environment (ASE)
#=======================================================
lattice_vector 3.0724735013353808 0.0000000000000000 0.0000000000000000 
lattice_vector -1.5362367506676908 2.6608401046109598 0.0000000000000000 
lattice_vector 0.0000000000000000 0.0000000000000000 21.7564065688237136 
atom -0.0000000000000005 1.7738934030739746 9.7311535132719733 Ti
atom 1.5362367506676888 0.8869467015369873 12.0252530555521329 Ti
atom -0.0000000000000000 0.0000000000000000 10.8782032844118746 C
atom -0.0000000000000005 1.7738934030739746 13.2984372225098131 O
atom 1.5362367506676888 0.8869467015369873 8.4579693463140693 O
atom -0.0000000000000005 1.7738934030739746 14.2723787761595027 H
atom 1.5362367506676888 0.8869467015369873 7.4840277926643681 H
