#=======================================================
#FHI-aims file: /home/leitherer/nomad/nomad-lab-base/apt/PROTOTYPES/Quaternaries/Cu2CdSnS4/Cu2CdSnS4_Cd2Cu4S8Sn2.txt
#Created using the Atomic Simulation Environment (ASE)
#=======================================================
lattice_vector 5.5353381589037181 0.0000000000000001 0.0000000000000000 
lattice_vector 0.0000000000000004 5.5353381589037172 0.0000000000000000 
lattice_vector 0.0000000000000007 0.0000000000000007 10.8355398864387471 
atom -0.0000000000000000 0.0000000000000000 0.0000000000000000 Cd
atom 2.7676690794518586 2.7676690794518586 5.4177699432193700 Cd
atom 0.0000000000000003 0.0000000000000003 5.4177699432193700 Sn
atom 2.7676690794518577 2.7676690794518581 0.0000000000000000 Sn
atom 2.7676690794518577 0.0000000000000002 2.7088849835060880 Cu
atom 2.7676690794518586 0.0000000000000005 8.1266549029326605 Cu
atom 0.0000000000000007 2.7676690794518586 8.1266549029326605 Cu
atom 0.0000000000000004 2.7676690794518577 2.7088849835060880 Cu
atom 4.1165790209542630 4.1165790209542621 1.5252012473468530 S
atom 1.4187591379494542 1.4187591379494537 1.5252012473468530 S
atom 1.4187591379494551 4.1165790209542630 9.3103386390918903 S
atom 4.1165790209542639 1.4187591379494544 9.3103386390918903 S
atom 1.3489099442377033 1.3489099442377033 6.9429711885119625 S
atom 4.1864282146660141 4.1864282146660132 6.9429711885119625 S
atom 4.1864282146660150 1.3489099442377028 3.8925686979267815 S
atom 1.3489099442377033 4.1864282146660141 3.8925686979267815 S
