#=======================================================
#FHI-aims file: /home/leitherer/nomad/nomad-lab-base/apt/PROTOTYPES/2D_materials/BiTeI/BiTeI_BiITe.txt
#Created using the Atomic Simulation Environment (ASE)
#=======================================================
lattice_vector 4.4219067863399726 0.0000000000000000 0.0000000000000000 
lattice_vector -2.2109533931699863 3.8294836101372240 0.0000000000000000 
lattice_vector 0.0000000000000000 0.0000000000000000 19.5000000000000000 
atom 0.0000000000000000 0.0000000000000001 9.8727347646409953 Bi
atom 2.2109533931699858 1.2764945367124081 11.5753391851115772 Te
atom -0.0000000000000001 2.5529890734248162 7.8021416239740509 I
