#=======================================================
#FHI-aims file: /home/leitherer/nomad/nomad-lab-base/apt/PROTOTYPES/2D_materials/MoS2/MoS2_MoS2.txt
#Created using the Atomic Simulation Environment (ASE)
#=======================================================
lattice_vector 3.1840664646845926 0.0000000000000000 0.0000000000000000 
lattice_vector -1.5920332323422963 2.7574824457549640 0.0000000000000000 
lattice_vector 0.0000000000000000 0.0000000000000000 18.1271126463515202 
atom 0.0000000000000000 0.0000000000000000 9.0635563231757601 Mo
atom 1.5920332323422963 0.9191608152516546 10.6271126463515202 S
atom 1.5920332323422963 0.9191608152516546 7.5000000000000000 S
